num_bands = 4
num_wann = 4
exclude_bands = 1-5, 10-15

!dis_win_min  = -3.0
!dis_win_max  =  21.0
!dis_froz_min =  6.0
!dis_froz_max =  15.0

num_iter     300

begin projections
 Pb:s
 Pb:p
 !Pb:sp3
end projections

begin unit_cell_cart
 bohr
-4.5965445   0.00000   4.5965445
 0.00000   4.5965445   4.5965445
-4.5965445   4.5965445   0.00000
end unit_cell_cart

begin atoms_frac
 Pb    0.0  0.0  0.0
end atoms_frac

!restart = plot
!hr_plot = .true.

bands_plot = .true. 
begin kpoint_path                                                              
  G 0.00 0.00 0.00 X 0.00 0.50 0.50                                              
  X 0.00 0.50 0.50 W 0.25 0.50 0.75                                              
  W 0.25 0.50 0.75 L 0.50 0.50 0.50                                              
  L 0.50 0.50 0.50 K 0.375 0.375 0.75                                            
  K 0.375 0.375 0.75 G 0.00 0.00 0.00                                            
  G 0.00 0.00 0.00 L 0.50 0.50 0.50                                              
end kpoint_path                                                                
bands_plot_format = gnuplot

mp_grid = 6 6 6 

begin kpoints
  0.00000000  0.00000000  0.00000000
  0.00000000  0.00000000  0.16666667
  0.00000000  0.00000000  0.33333333
  0.00000000  0.00000000  0.50000000
  0.00000000  0.00000000  0.66666667
  0.00000000  0.00000000  0.83333333
  0.00000000  0.16666667  0.00000000
  0.00000000  0.16666667  0.16666667
  0.00000000  0.16666667  0.33333333
  0.00000000  0.16666667  0.50000000
  0.00000000  0.16666667  0.66666667
  0.00000000  0.16666667  0.83333333
  0.00000000  0.33333333  0.00000000
  0.00000000  0.33333333  0.16666667
  0.00000000  0.33333333  0.33333333
  0.00000000  0.33333333  0.50000000
  0.00000000  0.33333333  0.66666667
  0.00000000  0.33333333  0.83333333
  0.00000000  0.50000000  0.00000000
  0.00000000  0.50000000  0.16666667
  0.00000000  0.50000000  0.33333333
  0.00000000  0.50000000  0.50000000
  0.00000000  0.50000000  0.66666667
  0.00000000  0.50000000  0.83333333
  0.00000000  0.66666667  0.00000000
  0.00000000  0.66666667  0.16666667
  0.00000000  0.66666667  0.33333333
  0.00000000  0.66666667  0.50000000
  0.00000000  0.66666667  0.66666667
  0.00000000  0.66666667  0.83333333
  0.00000000  0.83333333  0.00000000
  0.00000000  0.83333333  0.16666667
  0.00000000  0.83333333  0.33333333
  0.00000000  0.83333333  0.50000000
  0.00000000  0.83333333  0.66666667
  0.00000000  0.83333333  0.83333333
  0.16666667  0.00000000  0.00000000
  0.16666667  0.00000000  0.16666667
  0.16666667  0.00000000  0.33333333
  0.16666667  0.00000000  0.50000000
  0.16666667  0.00000000  0.66666667
  0.16666667  0.00000000  0.83333333
  0.16666667  0.16666667  0.00000000
  0.16666667  0.16666667  0.16666667
  0.16666667  0.16666667  0.33333333
  0.16666667  0.16666667  0.50000000
  0.16666667  0.16666667  0.66666667
  0.16666667  0.16666667  0.83333333
  0.16666667  0.33333333  0.00000000
  0.16666667  0.33333333  0.16666667
  0.16666667  0.33333333  0.33333333
  0.16666667  0.33333333  0.50000000
  0.16666667  0.33333333  0.66666667
  0.16666667  0.33333333  0.83333333
  0.16666667  0.50000000  0.00000000
  0.16666667  0.50000000  0.16666667
  0.16666667  0.50000000  0.33333333
  0.16666667  0.50000000  0.50000000
  0.16666667  0.50000000  0.66666667
  0.16666667  0.50000000  0.83333333
  0.16666667  0.66666667  0.00000000
  0.16666667  0.66666667  0.16666667
  0.16666667  0.66666667  0.33333333
  0.16666667  0.66666667  0.50000000
  0.16666667  0.66666667  0.66666667
  0.16666667  0.66666667  0.83333333
  0.16666667  0.83333333  0.00000000
  0.16666667  0.83333333  0.16666667
  0.16666667  0.83333333  0.33333333
  0.16666667  0.83333333  0.50000000
  0.16666667  0.83333333  0.66666667
  0.16666667  0.83333333  0.83333333
  0.33333333  0.00000000  0.00000000
  0.33333333  0.00000000  0.16666667
  0.33333333  0.00000000  0.33333333
  0.33333333  0.00000000  0.50000000
  0.33333333  0.00000000  0.66666667
  0.33333333  0.00000000  0.83333333
  0.33333333  0.16666667  0.00000000
  0.33333333  0.16666667  0.16666667
  0.33333333  0.16666667  0.33333333
  0.33333333  0.16666667  0.50000000
  0.33333333  0.16666667  0.66666667
  0.33333333  0.16666667  0.83333333
  0.33333333  0.33333333  0.00000000
  0.33333333  0.33333333  0.16666667
  0.33333333  0.33333333  0.33333333
  0.33333333  0.33333333  0.50000000
  0.33333333  0.33333333  0.66666667
  0.33333333  0.33333333  0.83333333
  0.33333333  0.50000000  0.00000000
  0.33333333  0.50000000  0.16666667
  0.33333333  0.50000000  0.33333333
  0.33333333  0.50000000  0.50000000
  0.33333333  0.50000000  0.66666667
  0.33333333  0.50000000  0.83333333
  0.33333333  0.66666667  0.00000000
  0.33333333  0.66666667  0.16666667
  0.33333333  0.66666667  0.33333333
  0.33333333  0.66666667  0.50000000
  0.33333333  0.66666667  0.66666667
  0.33333333  0.66666667  0.83333333
  0.33333333  0.83333333  0.00000000
  0.33333333  0.83333333  0.16666667
  0.33333333  0.83333333  0.33333333
  0.33333333  0.83333333  0.50000000
  0.33333333  0.83333333  0.66666667
  0.33333333  0.83333333  0.83333333
  0.50000000  0.00000000  0.00000000
  0.50000000  0.00000000  0.16666667
  0.50000000  0.00000000  0.33333333
  0.50000000  0.00000000  0.50000000
  0.50000000  0.00000000  0.66666667
  0.50000000  0.00000000  0.83333333
  0.50000000  0.16666667  0.00000000
  0.50000000  0.16666667  0.16666667
  0.50000000  0.16666667  0.33333333
  0.50000000  0.16666667  0.50000000
  0.50000000  0.16666667  0.66666667
  0.50000000  0.16666667  0.83333333
  0.50000000  0.33333333  0.00000000
  0.50000000  0.33333333  0.16666667
  0.50000000  0.33333333  0.33333333
  0.50000000  0.33333333  0.50000000
  0.50000000  0.33333333  0.66666667
  0.50000000  0.33333333  0.83333333
  0.50000000  0.50000000  0.00000000
  0.50000000  0.50000000  0.16666667
  0.50000000  0.50000000  0.33333333
  0.50000000  0.50000000  0.50000000
  0.50000000  0.50000000  0.66666667
  0.50000000  0.50000000  0.83333333
  0.50000000  0.66666667  0.00000000
  0.50000000  0.66666667  0.16666667
  0.50000000  0.66666667  0.33333333
  0.50000000  0.66666667  0.50000000
  0.50000000  0.66666667  0.66666667
  0.50000000  0.66666667  0.83333333
  0.50000000  0.83333333  0.00000000
  0.50000000  0.83333333  0.16666667
  0.50000000  0.83333333  0.33333333
  0.50000000  0.83333333  0.50000000
  0.50000000  0.83333333  0.66666667
  0.50000000  0.83333333  0.83333333
  0.66666667  0.00000000  0.00000000
  0.66666667  0.00000000  0.16666667
  0.66666667  0.00000000  0.33333333
  0.66666667  0.00000000  0.50000000
  0.66666667  0.00000000  0.66666667
  0.66666667  0.00000000  0.83333333
  0.66666667  0.16666667  0.00000000
  0.66666667  0.16666667  0.16666667
  0.66666667  0.16666667  0.33333333
  0.66666667  0.16666667  0.50000000
  0.66666667  0.16666667  0.66666667
  0.66666667  0.16666667  0.83333333
  0.66666667  0.33333333  0.00000000
  0.66666667  0.33333333  0.16666667
  0.66666667  0.33333333  0.33333333
  0.66666667  0.33333333  0.50000000
  0.66666667  0.33333333  0.66666667
  0.66666667  0.33333333  0.83333333
  0.66666667  0.50000000  0.00000000
  0.66666667  0.50000000  0.16666667
  0.66666667  0.50000000  0.33333333
  0.66666667  0.50000000  0.50000000
  0.66666667  0.50000000  0.66666667
  0.66666667  0.50000000  0.83333333
  0.66666667  0.66666667  0.00000000
  0.66666667  0.66666667  0.16666667
  0.66666667  0.66666667  0.33333333
  0.66666667  0.66666667  0.50000000
  0.66666667  0.66666667  0.66666667
  0.66666667  0.66666667  0.83333333
  0.66666667  0.83333333  0.00000000
  0.66666667  0.83333333  0.16666667
  0.66666667  0.83333333  0.33333333
  0.66666667  0.83333333  0.50000000
  0.66666667  0.83333333  0.66666667
  0.66666667  0.83333333  0.83333333
  0.83333333  0.00000000  0.00000000
  0.83333333  0.00000000  0.16666667
  0.83333333  0.00000000  0.33333333
  0.83333333  0.00000000  0.50000000
  0.83333333  0.00000000  0.66666667
  0.83333333  0.00000000  0.83333333
  0.83333333  0.16666667  0.00000000
  0.83333333  0.16666667  0.16666667
  0.83333333  0.16666667  0.33333333
  0.83333333  0.16666667  0.50000000
  0.83333333  0.16666667  0.66666667
  0.83333333  0.16666667  0.83333333
  0.83333333  0.33333333  0.00000000
  0.83333333  0.33333333  0.16666667
  0.83333333  0.33333333  0.33333333
  0.83333333  0.33333333  0.50000000
  0.83333333  0.33333333  0.66666667
  0.83333333  0.33333333  0.83333333
  0.83333333  0.50000000  0.00000000
  0.83333333  0.50000000  0.16666667
  0.83333333  0.50000000  0.33333333
  0.83333333  0.50000000  0.50000000
  0.83333333  0.50000000  0.66666667
  0.83333333  0.50000000  0.83333333
  0.83333333  0.66666667  0.00000000
  0.83333333  0.66666667  0.16666667
  0.83333333  0.66666667  0.33333333
  0.83333333  0.66666667  0.50000000
  0.83333333  0.66666667  0.66666667
  0.83333333  0.66666667  0.83333333
  0.83333333  0.83333333  0.00000000
  0.83333333  0.83333333  0.16666667
  0.83333333  0.83333333  0.33333333
  0.83333333  0.83333333  0.50000000
  0.83333333  0.83333333  0.66666667
  0.83333333  0.83333333  0.83333333
end kpoints 
