&control
    calculation='scf'
    restart_mode='from_scratch'
    prefix='cu'
    pseudo_dir = './'
    outdir='./'
    verbosity='high'
    wf_collect=.true.
 /
&system
    nosym=.true.
    noinv=.true.
    ibrav=2
    celldm(1)=7.2
    nat=1
    ntyp=1
    nbnd=10
    ecutwfc=80.0
    lspinorb=.false.
    noncolin=.false.
    occupations='smearing',
    degauss=0.001
    /
&electrons
    conv_thr=1.0d-12
 /
ATOMIC_SPECIES
Cu 63.546 Cu.pbe-tm.UPF
ATOMIC_POSITIONS {crystal}
Cu  0.000  0.000  0.000
K_POINTS {tpiba}
64
     0.00000000     0.00000000     0.00000000   1.0
    -0.25000000     0.25000000    -0.25000000   1.0
    -0.50000000     0.50000000    -0.50000000   1.0
    -0.75000000     0.75000000    -0.75000000   1.0
     0.25000000     0.25000000     0.25000000   1.0
     0.00000000     0.50000000     0.00000000   1.0
    -0.25000000     0.75000000    -0.25000000   1.0
    -0.50000000     1.00000000    -0.50000000   1.0
     0.50000000     0.50000000     0.50000000   1.0
     0.25000000     0.75000000     0.25000000   1.0
     0.00000000     1.00000000     0.00000000   1.0
    -0.25000000     1.25000000    -0.25000000   1.0
     0.75000000     0.75000000     0.75000000   1.0
     0.50000000     1.00000000     0.50000000   1.0
     0.25000000     1.25000000     0.25000000   1.0
     0.00000000     1.50000000     0.00000000   1.0
    -0.25000000    -0.25000000     0.25000000   1.0
    -0.50000000     0.00000000     0.00000000   1.0
    -0.75000000     0.25000000    -0.25000000   1.0
    -1.00000000     0.50000000    -0.50000000   1.0
     0.00000000     0.00000000     0.50000000   1.0
    -0.25000000     0.25000000     0.25000000   1.0
    -0.50000000     0.50000000     0.00000000   1.0
    -0.75000000     0.75000000    -0.25000000   1.0
     0.25000000     0.25000000     0.75000000   1.0
     0.00000000     0.50000000     0.50000000   1.0
    -0.25000000     0.75000000     0.25000000   1.0
    -0.50000000     1.00000000     0.00000000   1.0
     0.50000000     0.50000000     1.00000000   1.0
     0.25000000     0.75000000     0.75000000   1.0
     0.00000000     1.00000000     0.50000000   1.0
    -0.25000000     1.25000000     0.25000000   1.0
    -0.50000000    -0.50000000     0.50000000   1.0
    -0.75000000    -0.25000000     0.25000000   1.0
    -1.00000000     0.00000000     0.00000000   1.0
    -1.25000000     0.25000000    -0.25000000   1.0
    -0.25000000    -0.25000000     0.75000000   1.0
    -0.50000000     0.00000000     0.50000000   1.0
    -0.75000000     0.25000000     0.25000000   1.0
    -1.00000000     0.50000000     0.00000000   1.0
     0.00000000     0.00000000     1.00000000   1.0
    -0.25000000     0.25000000     0.75000000   1.0
    -0.50000000     0.50000000     0.50000000   1.0
    -0.75000000     0.75000000     0.25000000   1.0
     0.25000000     0.25000000     1.25000000   1.0
     0.00000000     0.50000000     1.00000000   1.0
    -0.25000000     0.75000000     0.75000000   1.0
    -0.50000000     1.00000000     0.50000000   1.0
    -0.75000000    -0.75000000     0.75000000   1.0
    -1.00000000    -0.50000000     0.50000000   1.0
    -1.25000000    -0.25000000     0.25000000   1.0
    -1.50000000     0.00000000     0.00000000   1.0
    -0.50000000    -0.50000000     1.00000000   1.0
    -0.75000000    -0.25000000     0.75000000   1.0
    -1.00000000     0.00000000     0.50000000   1.0
    -1.25000000     0.25000000     0.25000000   1.0
    -0.25000000    -0.25000000     1.25000000   1.0
    -0.50000000     0.00000000     1.00000000   1.0
    -0.75000000     0.25000000     0.75000000   1.0
    -1.00000000     0.50000000     0.50000000   1.0
     0.00000000     0.00000000     1.50000000   1.0
    -0.25000000     0.25000000     1.25000000   1.0
    -0.50000000     0.50000000     1.00000000   1.0
    -0.75000000     0.75000000     0.75000000   1.0
