-- pw2intw
&inputpp
 prefix = "gaas_irr",
 mesh_dir = "./",
 phonons = .false.,
 dynxml = .false.,
/
