&inputpp
 prefix = "cu",
 phonons = .true.,
 phdir = "./",
 nqirr = 8,
 dynxml = .false.,
 fildvscf = "dvscf"
 fildyn = "cu.dyn"
/

