-- pw2intw
&inputpp
 prefix = "gaas",
 outdir = "./",
 phonons = .false.,
 dynxml = .false.,
/
