 &control
    calculation='bands',
    prefix='si'
    pseudo_dir = './',
    outdir='./',
    wf_collect=.true.
    verbosity='high'
 /
 &system
    ibrav=2, 
    celldm(1)=10.2033864, 
    nat= 2, 
    ntyp=1,
    ecutwfc=30.0
 /
 &electrons
    mixing_beta=0.7
    conv_thr=1.0d-14
 /
ATOMIC_SPECIES
 Si  28.086  Si.pz-vbc.UPF
ATOMIC_POSITIONS (alat)
 Si 0.00 0.00 0.00
 Si 0.25 0.25 0.25
K_POINTS crystal
512
  0.00000000  0.00000000  0.00000000  1.953125e-03
  0.00000000  0.00000000  0.12500000  1.953125e-03
  0.00000000  0.00000000  0.25000000  1.953125e-03
  0.00000000  0.00000000  0.37500000  1.953125e-03
  0.00000000  0.00000000  0.50000000  1.953125e-03
  0.00000000  0.00000000  0.62500000  1.953125e-03
  0.00000000  0.00000000  0.75000000  1.953125e-03
  0.00000000  0.00000000  0.87500000  1.953125e-03
  0.00000000  0.12500000  0.00000000  1.953125e-03
  0.00000000  0.12500000  0.12500000  1.953125e-03
  0.00000000  0.12500000  0.25000000  1.953125e-03
  0.00000000  0.12500000  0.37500000  1.953125e-03
  0.00000000  0.12500000  0.50000000  1.953125e-03
  0.00000000  0.12500000  0.62500000  1.953125e-03
  0.00000000  0.12500000  0.75000000  1.953125e-03
  0.00000000  0.12500000  0.87500000  1.953125e-03
  0.00000000  0.25000000  0.00000000  1.953125e-03
  0.00000000  0.25000000  0.12500000  1.953125e-03
  0.00000000  0.25000000  0.25000000  1.953125e-03
  0.00000000  0.25000000  0.37500000  1.953125e-03
  0.00000000  0.25000000  0.50000000  1.953125e-03
  0.00000000  0.25000000  0.62500000  1.953125e-03
  0.00000000  0.25000000  0.75000000  1.953125e-03
  0.00000000  0.25000000  0.87500000  1.953125e-03
  0.00000000  0.37500000  0.00000000  1.953125e-03
  0.00000000  0.37500000  0.12500000  1.953125e-03
  0.00000000  0.37500000  0.25000000  1.953125e-03
  0.00000000  0.37500000  0.37500000  1.953125e-03
  0.00000000  0.37500000  0.50000000  1.953125e-03
  0.00000000  0.37500000  0.62500000  1.953125e-03
  0.00000000  0.37500000  0.75000000  1.953125e-03
  0.00000000  0.37500000  0.87500000  1.953125e-03
  0.00000000  0.50000000  0.00000000  1.953125e-03
  0.00000000  0.50000000  0.12500000  1.953125e-03
  0.00000000  0.50000000  0.25000000  1.953125e-03
  0.00000000  0.50000000  0.37500000  1.953125e-03
  0.00000000  0.50000000  0.50000000  1.953125e-03
  0.00000000  0.50000000  0.62500000  1.953125e-03
  0.00000000  0.50000000  0.75000000  1.953125e-03
  0.00000000  0.50000000  0.87500000  1.953125e-03
  0.00000000  0.62500000  0.00000000  1.953125e-03
  0.00000000  0.62500000  0.12500000  1.953125e-03
  0.00000000  0.62500000  0.25000000  1.953125e-03
  0.00000000  0.62500000  0.37500000  1.953125e-03
  0.00000000  0.62500000  0.50000000  1.953125e-03
  0.00000000  0.62500000  0.62500000  1.953125e-03
  0.00000000  0.62500000  0.75000000  1.953125e-03
  0.00000000  0.62500000  0.87500000  1.953125e-03
  0.00000000  0.75000000  0.00000000  1.953125e-03
  0.00000000  0.75000000  0.12500000  1.953125e-03
  0.00000000  0.75000000  0.25000000  1.953125e-03
  0.00000000  0.75000000  0.37500000  1.953125e-03
  0.00000000  0.75000000  0.50000000  1.953125e-03
  0.00000000  0.75000000  0.62500000  1.953125e-03
  0.00000000  0.75000000  0.75000000  1.953125e-03
  0.00000000  0.75000000  0.87500000  1.953125e-03
  0.00000000  0.87500000  0.00000000  1.953125e-03
  0.00000000  0.87500000  0.12500000  1.953125e-03
  0.00000000  0.87500000  0.25000000  1.953125e-03
  0.00000000  0.87500000  0.37500000  1.953125e-03
  0.00000000  0.87500000  0.50000000  1.953125e-03
  0.00000000  0.87500000  0.62500000  1.953125e-03
  0.00000000  0.87500000  0.75000000  1.953125e-03
  0.00000000  0.87500000  0.87500000  1.953125e-03
  0.12500000  0.00000000  0.00000000  1.953125e-03
  0.12500000  0.00000000  0.12500000  1.953125e-03
  0.12500000  0.00000000  0.25000000  1.953125e-03
  0.12500000  0.00000000  0.37500000  1.953125e-03
  0.12500000  0.00000000  0.50000000  1.953125e-03
  0.12500000  0.00000000  0.62500000  1.953125e-03
  0.12500000  0.00000000  0.75000000  1.953125e-03
  0.12500000  0.00000000  0.87500000  1.953125e-03
  0.12500000  0.12500000  0.00000000  1.953125e-03
  0.12500000  0.12500000  0.12500000  1.953125e-03
  0.12500000  0.12500000  0.25000000  1.953125e-03
  0.12500000  0.12500000  0.37500000  1.953125e-03
  0.12500000  0.12500000  0.50000000  1.953125e-03
  0.12500000  0.12500000  0.62500000  1.953125e-03
  0.12500000  0.12500000  0.75000000  1.953125e-03
  0.12500000  0.12500000  0.87500000  1.953125e-03
  0.12500000  0.25000000  0.00000000  1.953125e-03
  0.12500000  0.25000000  0.12500000  1.953125e-03
  0.12500000  0.25000000  0.25000000  1.953125e-03
  0.12500000  0.25000000  0.37500000  1.953125e-03
  0.12500000  0.25000000  0.50000000  1.953125e-03
  0.12500000  0.25000000  0.62500000  1.953125e-03
  0.12500000  0.25000000  0.75000000  1.953125e-03
  0.12500000  0.25000000  0.87500000  1.953125e-03
  0.12500000  0.37500000  0.00000000  1.953125e-03
  0.12500000  0.37500000  0.12500000  1.953125e-03
  0.12500000  0.37500000  0.25000000  1.953125e-03
  0.12500000  0.37500000  0.37500000  1.953125e-03
  0.12500000  0.37500000  0.50000000  1.953125e-03
  0.12500000  0.37500000  0.62500000  1.953125e-03
  0.12500000  0.37500000  0.75000000  1.953125e-03
  0.12500000  0.37500000  0.87500000  1.953125e-03
  0.12500000  0.50000000  0.00000000  1.953125e-03
  0.12500000  0.50000000  0.12500000  1.953125e-03
  0.12500000  0.50000000  0.25000000  1.953125e-03
  0.12500000  0.50000000  0.37500000  1.953125e-03
  0.12500000  0.50000000  0.50000000  1.953125e-03
  0.12500000  0.50000000  0.62500000  1.953125e-03
  0.12500000  0.50000000  0.75000000  1.953125e-03
  0.12500000  0.50000000  0.87500000  1.953125e-03
  0.12500000  0.62500000  0.00000000  1.953125e-03
  0.12500000  0.62500000  0.12500000  1.953125e-03
  0.12500000  0.62500000  0.25000000  1.953125e-03
  0.12500000  0.62500000  0.37500000  1.953125e-03
  0.12500000  0.62500000  0.50000000  1.953125e-03
  0.12500000  0.62500000  0.62500000  1.953125e-03
  0.12500000  0.62500000  0.75000000  1.953125e-03
  0.12500000  0.62500000  0.87500000  1.953125e-03
  0.12500000  0.75000000  0.00000000  1.953125e-03
  0.12500000  0.75000000  0.12500000  1.953125e-03
  0.12500000  0.75000000  0.25000000  1.953125e-03
  0.12500000  0.75000000  0.37500000  1.953125e-03
  0.12500000  0.75000000  0.50000000  1.953125e-03
  0.12500000  0.75000000  0.62500000  1.953125e-03
  0.12500000  0.75000000  0.75000000  1.953125e-03
  0.12500000  0.75000000  0.87500000  1.953125e-03
  0.12500000  0.87500000  0.00000000  1.953125e-03
  0.12500000  0.87500000  0.12500000  1.953125e-03
  0.12500000  0.87500000  0.25000000  1.953125e-03
  0.12500000  0.87500000  0.37500000  1.953125e-03
  0.12500000  0.87500000  0.50000000  1.953125e-03
  0.12500000  0.87500000  0.62500000  1.953125e-03
  0.12500000  0.87500000  0.75000000  1.953125e-03
  0.12500000  0.87500000  0.87500000  1.953125e-03
  0.25000000  0.00000000  0.00000000  1.953125e-03
  0.25000000  0.00000000  0.12500000  1.953125e-03
  0.25000000  0.00000000  0.25000000  1.953125e-03
  0.25000000  0.00000000  0.37500000  1.953125e-03
  0.25000000  0.00000000  0.50000000  1.953125e-03
  0.25000000  0.00000000  0.62500000  1.953125e-03
  0.25000000  0.00000000  0.75000000  1.953125e-03
  0.25000000  0.00000000  0.87500000  1.953125e-03
  0.25000000  0.12500000  0.00000000  1.953125e-03
  0.25000000  0.12500000  0.12500000  1.953125e-03
  0.25000000  0.12500000  0.25000000  1.953125e-03
  0.25000000  0.12500000  0.37500000  1.953125e-03
  0.25000000  0.12500000  0.50000000  1.953125e-03
  0.25000000  0.12500000  0.62500000  1.953125e-03
  0.25000000  0.12500000  0.75000000  1.953125e-03
  0.25000000  0.12500000  0.87500000  1.953125e-03
  0.25000000  0.25000000  0.00000000  1.953125e-03
  0.25000000  0.25000000  0.12500000  1.953125e-03
  0.25000000  0.25000000  0.25000000  1.953125e-03
  0.25000000  0.25000000  0.37500000  1.953125e-03
  0.25000000  0.25000000  0.50000000  1.953125e-03
  0.25000000  0.25000000  0.62500000  1.953125e-03
  0.25000000  0.25000000  0.75000000  1.953125e-03
  0.25000000  0.25000000  0.87500000  1.953125e-03
  0.25000000  0.37500000  0.00000000  1.953125e-03
  0.25000000  0.37500000  0.12500000  1.953125e-03
  0.25000000  0.37500000  0.25000000  1.953125e-03
  0.25000000  0.37500000  0.37500000  1.953125e-03
  0.25000000  0.37500000  0.50000000  1.953125e-03
  0.25000000  0.37500000  0.62500000  1.953125e-03
  0.25000000  0.37500000  0.75000000  1.953125e-03
  0.25000000  0.37500000  0.87500000  1.953125e-03
  0.25000000  0.50000000  0.00000000  1.953125e-03
  0.25000000  0.50000000  0.12500000  1.953125e-03
  0.25000000  0.50000000  0.25000000  1.953125e-03
  0.25000000  0.50000000  0.37500000  1.953125e-03
  0.25000000  0.50000000  0.50000000  1.953125e-03
  0.25000000  0.50000000  0.62500000  1.953125e-03
  0.25000000  0.50000000  0.75000000  1.953125e-03
  0.25000000  0.50000000  0.87500000  1.953125e-03
  0.25000000  0.62500000  0.00000000  1.953125e-03
  0.25000000  0.62500000  0.12500000  1.953125e-03
  0.25000000  0.62500000  0.25000000  1.953125e-03
  0.25000000  0.62500000  0.37500000  1.953125e-03
  0.25000000  0.62500000  0.50000000  1.953125e-03
  0.25000000  0.62500000  0.62500000  1.953125e-03
  0.25000000  0.62500000  0.75000000  1.953125e-03
  0.25000000  0.62500000  0.87500000  1.953125e-03
  0.25000000  0.75000000  0.00000000  1.953125e-03
  0.25000000  0.75000000  0.12500000  1.953125e-03
  0.25000000  0.75000000  0.25000000  1.953125e-03
  0.25000000  0.75000000  0.37500000  1.953125e-03
  0.25000000  0.75000000  0.50000000  1.953125e-03
  0.25000000  0.75000000  0.62500000  1.953125e-03
  0.25000000  0.75000000  0.75000000  1.953125e-03
  0.25000000  0.75000000  0.87500000  1.953125e-03
  0.25000000  0.87500000  0.00000000  1.953125e-03
  0.25000000  0.87500000  0.12500000  1.953125e-03
  0.25000000  0.87500000  0.25000000  1.953125e-03
  0.25000000  0.87500000  0.37500000  1.953125e-03
  0.25000000  0.87500000  0.50000000  1.953125e-03
  0.25000000  0.87500000  0.62500000  1.953125e-03
  0.25000000  0.87500000  0.75000000  1.953125e-03
  0.25000000  0.87500000  0.87500000  1.953125e-03
  0.37500000  0.00000000  0.00000000  1.953125e-03
  0.37500000  0.00000000  0.12500000  1.953125e-03
  0.37500000  0.00000000  0.25000000  1.953125e-03
  0.37500000  0.00000000  0.37500000  1.953125e-03
  0.37500000  0.00000000  0.50000000  1.953125e-03
  0.37500000  0.00000000  0.62500000  1.953125e-03
  0.37500000  0.00000000  0.75000000  1.953125e-03
  0.37500000  0.00000000  0.87500000  1.953125e-03
  0.37500000  0.12500000  0.00000000  1.953125e-03
  0.37500000  0.12500000  0.12500000  1.953125e-03
  0.37500000  0.12500000  0.25000000  1.953125e-03
  0.37500000  0.12500000  0.37500000  1.953125e-03
  0.37500000  0.12500000  0.50000000  1.953125e-03
  0.37500000  0.12500000  0.62500000  1.953125e-03
  0.37500000  0.12500000  0.75000000  1.953125e-03
  0.37500000  0.12500000  0.87500000  1.953125e-03
  0.37500000  0.25000000  0.00000000  1.953125e-03
  0.37500000  0.25000000  0.12500000  1.953125e-03
  0.37500000  0.25000000  0.25000000  1.953125e-03
  0.37500000  0.25000000  0.37500000  1.953125e-03
  0.37500000  0.25000000  0.50000000  1.953125e-03
  0.37500000  0.25000000  0.62500000  1.953125e-03
  0.37500000  0.25000000  0.75000000  1.953125e-03
  0.37500000  0.25000000  0.87500000  1.953125e-03
  0.37500000  0.37500000  0.00000000  1.953125e-03
  0.37500000  0.37500000  0.12500000  1.953125e-03
  0.37500000  0.37500000  0.25000000  1.953125e-03
  0.37500000  0.37500000  0.37500000  1.953125e-03
  0.37500000  0.37500000  0.50000000  1.953125e-03
  0.37500000  0.37500000  0.62500000  1.953125e-03
  0.37500000  0.37500000  0.75000000  1.953125e-03
  0.37500000  0.37500000  0.87500000  1.953125e-03
  0.37500000  0.50000000  0.00000000  1.953125e-03
  0.37500000  0.50000000  0.12500000  1.953125e-03
  0.37500000  0.50000000  0.25000000  1.953125e-03
  0.37500000  0.50000000  0.37500000  1.953125e-03
  0.37500000  0.50000000  0.50000000  1.953125e-03
  0.37500000  0.50000000  0.62500000  1.953125e-03
  0.37500000  0.50000000  0.75000000  1.953125e-03
  0.37500000  0.50000000  0.87500000  1.953125e-03
  0.37500000  0.62500000  0.00000000  1.953125e-03
  0.37500000  0.62500000  0.12500000  1.953125e-03
  0.37500000  0.62500000  0.25000000  1.953125e-03
  0.37500000  0.62500000  0.37500000  1.953125e-03
  0.37500000  0.62500000  0.50000000  1.953125e-03
  0.37500000  0.62500000  0.62500000  1.953125e-03
  0.37500000  0.62500000  0.75000000  1.953125e-03
  0.37500000  0.62500000  0.87500000  1.953125e-03
  0.37500000  0.75000000  0.00000000  1.953125e-03
  0.37500000  0.75000000  0.12500000  1.953125e-03
  0.37500000  0.75000000  0.25000000  1.953125e-03
  0.37500000  0.75000000  0.37500000  1.953125e-03
  0.37500000  0.75000000  0.50000000  1.953125e-03
  0.37500000  0.75000000  0.62500000  1.953125e-03
  0.37500000  0.75000000  0.75000000  1.953125e-03
  0.37500000  0.75000000  0.87500000  1.953125e-03
  0.37500000  0.87500000  0.00000000  1.953125e-03
  0.37500000  0.87500000  0.12500000  1.953125e-03
  0.37500000  0.87500000  0.25000000  1.953125e-03
  0.37500000  0.87500000  0.37500000  1.953125e-03
  0.37500000  0.87500000  0.50000000  1.953125e-03
  0.37500000  0.87500000  0.62500000  1.953125e-03
  0.37500000  0.87500000  0.75000000  1.953125e-03
  0.37500000  0.87500000  0.87500000  1.953125e-03
  0.50000000  0.00000000  0.00000000  1.953125e-03
  0.50000000  0.00000000  0.12500000  1.953125e-03
  0.50000000  0.00000000  0.25000000  1.953125e-03
  0.50000000  0.00000000  0.37500000  1.953125e-03
  0.50000000  0.00000000  0.50000000  1.953125e-03
  0.50000000  0.00000000  0.62500000  1.953125e-03
  0.50000000  0.00000000  0.75000000  1.953125e-03
  0.50000000  0.00000000  0.87500000  1.953125e-03
  0.50000000  0.12500000  0.00000000  1.953125e-03
  0.50000000  0.12500000  0.12500000  1.953125e-03
  0.50000000  0.12500000  0.25000000  1.953125e-03
  0.50000000  0.12500000  0.37500000  1.953125e-03
  0.50000000  0.12500000  0.50000000  1.953125e-03
  0.50000000  0.12500000  0.62500000  1.953125e-03
  0.50000000  0.12500000  0.75000000  1.953125e-03
  0.50000000  0.12500000  0.87500000  1.953125e-03
  0.50000000  0.25000000  0.00000000  1.953125e-03
  0.50000000  0.25000000  0.12500000  1.953125e-03
  0.50000000  0.25000000  0.25000000  1.953125e-03
  0.50000000  0.25000000  0.37500000  1.953125e-03
  0.50000000  0.25000000  0.50000000  1.953125e-03
  0.50000000  0.25000000  0.62500000  1.953125e-03
  0.50000000  0.25000000  0.75000000  1.953125e-03
  0.50000000  0.25000000  0.87500000  1.953125e-03
  0.50000000  0.37500000  0.00000000  1.953125e-03
  0.50000000  0.37500000  0.12500000  1.953125e-03
  0.50000000  0.37500000  0.25000000  1.953125e-03
  0.50000000  0.37500000  0.37500000  1.953125e-03
  0.50000000  0.37500000  0.50000000  1.953125e-03
  0.50000000  0.37500000  0.62500000  1.953125e-03
  0.50000000  0.37500000  0.75000000  1.953125e-03
  0.50000000  0.37500000  0.87500000  1.953125e-03
  0.50000000  0.50000000  0.00000000  1.953125e-03
  0.50000000  0.50000000  0.12500000  1.953125e-03
  0.50000000  0.50000000  0.25000000  1.953125e-03
  0.50000000  0.50000000  0.37500000  1.953125e-03
  0.50000000  0.50000000  0.50000000  1.953125e-03
  0.50000000  0.50000000  0.62500000  1.953125e-03
  0.50000000  0.50000000  0.75000000  1.953125e-03
  0.50000000  0.50000000  0.87500000  1.953125e-03
  0.50000000  0.62500000  0.00000000  1.953125e-03
  0.50000000  0.62500000  0.12500000  1.953125e-03
  0.50000000  0.62500000  0.25000000  1.953125e-03
  0.50000000  0.62500000  0.37500000  1.953125e-03
  0.50000000  0.62500000  0.50000000  1.953125e-03
  0.50000000  0.62500000  0.62500000  1.953125e-03
  0.50000000  0.62500000  0.75000000  1.953125e-03
  0.50000000  0.62500000  0.87500000  1.953125e-03
  0.50000000  0.75000000  0.00000000  1.953125e-03
  0.50000000  0.75000000  0.12500000  1.953125e-03
  0.50000000  0.75000000  0.25000000  1.953125e-03
  0.50000000  0.75000000  0.37500000  1.953125e-03
  0.50000000  0.75000000  0.50000000  1.953125e-03
  0.50000000  0.75000000  0.62500000  1.953125e-03
  0.50000000  0.75000000  0.75000000  1.953125e-03
  0.50000000  0.75000000  0.87500000  1.953125e-03
  0.50000000  0.87500000  0.00000000  1.953125e-03
  0.50000000  0.87500000  0.12500000  1.953125e-03
  0.50000000  0.87500000  0.25000000  1.953125e-03
  0.50000000  0.87500000  0.37500000  1.953125e-03
  0.50000000  0.87500000  0.50000000  1.953125e-03
  0.50000000  0.87500000  0.62500000  1.953125e-03
  0.50000000  0.87500000  0.75000000  1.953125e-03
  0.50000000  0.87500000  0.87500000  1.953125e-03
  0.62500000  0.00000000  0.00000000  1.953125e-03
  0.62500000  0.00000000  0.12500000  1.953125e-03
  0.62500000  0.00000000  0.25000000  1.953125e-03
  0.62500000  0.00000000  0.37500000  1.953125e-03
  0.62500000  0.00000000  0.50000000  1.953125e-03
  0.62500000  0.00000000  0.62500000  1.953125e-03
  0.62500000  0.00000000  0.75000000  1.953125e-03
  0.62500000  0.00000000  0.87500000  1.953125e-03
  0.62500000  0.12500000  0.00000000  1.953125e-03
  0.62500000  0.12500000  0.12500000  1.953125e-03
  0.62500000  0.12500000  0.25000000  1.953125e-03
  0.62500000  0.12500000  0.37500000  1.953125e-03
  0.62500000  0.12500000  0.50000000  1.953125e-03
  0.62500000  0.12500000  0.62500000  1.953125e-03
  0.62500000  0.12500000  0.75000000  1.953125e-03
  0.62500000  0.12500000  0.87500000  1.953125e-03
  0.62500000  0.25000000  0.00000000  1.953125e-03
  0.62500000  0.25000000  0.12500000  1.953125e-03
  0.62500000  0.25000000  0.25000000  1.953125e-03
  0.62500000  0.25000000  0.37500000  1.953125e-03
  0.62500000  0.25000000  0.50000000  1.953125e-03
  0.62500000  0.25000000  0.62500000  1.953125e-03
  0.62500000  0.25000000  0.75000000  1.953125e-03
  0.62500000  0.25000000  0.87500000  1.953125e-03
  0.62500000  0.37500000  0.00000000  1.953125e-03
  0.62500000  0.37500000  0.12500000  1.953125e-03
  0.62500000  0.37500000  0.25000000  1.953125e-03
  0.62500000  0.37500000  0.37500000  1.953125e-03
  0.62500000  0.37500000  0.50000000  1.953125e-03
  0.62500000  0.37500000  0.62500000  1.953125e-03
  0.62500000  0.37500000  0.75000000  1.953125e-03
  0.62500000  0.37500000  0.87500000  1.953125e-03
  0.62500000  0.50000000  0.00000000  1.953125e-03
  0.62500000  0.50000000  0.12500000  1.953125e-03
  0.62500000  0.50000000  0.25000000  1.953125e-03
  0.62500000  0.50000000  0.37500000  1.953125e-03
  0.62500000  0.50000000  0.50000000  1.953125e-03
  0.62500000  0.50000000  0.62500000  1.953125e-03
  0.62500000  0.50000000  0.75000000  1.953125e-03
  0.62500000  0.50000000  0.87500000  1.953125e-03
  0.62500000  0.62500000  0.00000000  1.953125e-03
  0.62500000  0.62500000  0.12500000  1.953125e-03
  0.62500000  0.62500000  0.25000000  1.953125e-03
  0.62500000  0.62500000  0.37500000  1.953125e-03
  0.62500000  0.62500000  0.50000000  1.953125e-03
  0.62500000  0.62500000  0.62500000  1.953125e-03
  0.62500000  0.62500000  0.75000000  1.953125e-03
  0.62500000  0.62500000  0.87500000  1.953125e-03
  0.62500000  0.75000000  0.00000000  1.953125e-03
  0.62500000  0.75000000  0.12500000  1.953125e-03
  0.62500000  0.75000000  0.25000000  1.953125e-03
  0.62500000  0.75000000  0.37500000  1.953125e-03
  0.62500000  0.75000000  0.50000000  1.953125e-03
  0.62500000  0.75000000  0.62500000  1.953125e-03
  0.62500000  0.75000000  0.75000000  1.953125e-03
  0.62500000  0.75000000  0.87500000  1.953125e-03
  0.62500000  0.87500000  0.00000000  1.953125e-03
  0.62500000  0.87500000  0.12500000  1.953125e-03
  0.62500000  0.87500000  0.25000000  1.953125e-03
  0.62500000  0.87500000  0.37500000  1.953125e-03
  0.62500000  0.87500000  0.50000000  1.953125e-03
  0.62500000  0.87500000  0.62500000  1.953125e-03
  0.62500000  0.87500000  0.75000000  1.953125e-03
  0.62500000  0.87500000  0.87500000  1.953125e-03
  0.75000000  0.00000000  0.00000000  1.953125e-03
  0.75000000  0.00000000  0.12500000  1.953125e-03
  0.75000000  0.00000000  0.25000000  1.953125e-03
  0.75000000  0.00000000  0.37500000  1.953125e-03
  0.75000000  0.00000000  0.50000000  1.953125e-03
  0.75000000  0.00000000  0.62500000  1.953125e-03
  0.75000000  0.00000000  0.75000000  1.953125e-03
  0.75000000  0.00000000  0.87500000  1.953125e-03
  0.75000000  0.12500000  0.00000000  1.953125e-03
  0.75000000  0.12500000  0.12500000  1.953125e-03
  0.75000000  0.12500000  0.25000000  1.953125e-03
  0.75000000  0.12500000  0.37500000  1.953125e-03
  0.75000000  0.12500000  0.50000000  1.953125e-03
  0.75000000  0.12500000  0.62500000  1.953125e-03
  0.75000000  0.12500000  0.75000000  1.953125e-03
  0.75000000  0.12500000  0.87500000  1.953125e-03
  0.75000000  0.25000000  0.00000000  1.953125e-03
  0.75000000  0.25000000  0.12500000  1.953125e-03
  0.75000000  0.25000000  0.25000000  1.953125e-03
  0.75000000  0.25000000  0.37500000  1.953125e-03
  0.75000000  0.25000000  0.50000000  1.953125e-03
  0.75000000  0.25000000  0.62500000  1.953125e-03
  0.75000000  0.25000000  0.75000000  1.953125e-03
  0.75000000  0.25000000  0.87500000  1.953125e-03
  0.75000000  0.37500000  0.00000000  1.953125e-03
  0.75000000  0.37500000  0.12500000  1.953125e-03
  0.75000000  0.37500000  0.25000000  1.953125e-03
  0.75000000  0.37500000  0.37500000  1.953125e-03
  0.75000000  0.37500000  0.50000000  1.953125e-03
  0.75000000  0.37500000  0.62500000  1.953125e-03
  0.75000000  0.37500000  0.75000000  1.953125e-03
  0.75000000  0.37500000  0.87500000  1.953125e-03
  0.75000000  0.50000000  0.00000000  1.953125e-03
  0.75000000  0.50000000  0.12500000  1.953125e-03
  0.75000000  0.50000000  0.25000000  1.953125e-03
  0.75000000  0.50000000  0.37500000  1.953125e-03
  0.75000000  0.50000000  0.50000000  1.953125e-03
  0.75000000  0.50000000  0.62500000  1.953125e-03
  0.75000000  0.50000000  0.75000000  1.953125e-03
  0.75000000  0.50000000  0.87500000  1.953125e-03
  0.75000000  0.62500000  0.00000000  1.953125e-03
  0.75000000  0.62500000  0.12500000  1.953125e-03
  0.75000000  0.62500000  0.25000000  1.953125e-03
  0.75000000  0.62500000  0.37500000  1.953125e-03
  0.75000000  0.62500000  0.50000000  1.953125e-03
  0.75000000  0.62500000  0.62500000  1.953125e-03
  0.75000000  0.62500000  0.75000000  1.953125e-03
  0.75000000  0.62500000  0.87500000  1.953125e-03
  0.75000000  0.75000000  0.00000000  1.953125e-03
  0.75000000  0.75000000  0.12500000  1.953125e-03
  0.75000000  0.75000000  0.25000000  1.953125e-03
  0.75000000  0.75000000  0.37500000  1.953125e-03
  0.75000000  0.75000000  0.50000000  1.953125e-03
  0.75000000  0.75000000  0.62500000  1.953125e-03
  0.75000000  0.75000000  0.75000000  1.953125e-03
  0.75000000  0.75000000  0.87500000  1.953125e-03
  0.75000000  0.87500000  0.00000000  1.953125e-03
  0.75000000  0.87500000  0.12500000  1.953125e-03
  0.75000000  0.87500000  0.25000000  1.953125e-03
  0.75000000  0.87500000  0.37500000  1.953125e-03
  0.75000000  0.87500000  0.50000000  1.953125e-03
  0.75000000  0.87500000  0.62500000  1.953125e-03
  0.75000000  0.87500000  0.75000000  1.953125e-03
  0.75000000  0.87500000  0.87500000  1.953125e-03
  0.87500000  0.00000000  0.00000000  1.953125e-03
  0.87500000  0.00000000  0.12500000  1.953125e-03
  0.87500000  0.00000000  0.25000000  1.953125e-03
  0.87500000  0.00000000  0.37500000  1.953125e-03
  0.87500000  0.00000000  0.50000000  1.953125e-03
  0.87500000  0.00000000  0.62500000  1.953125e-03
  0.87500000  0.00000000  0.75000000  1.953125e-03
  0.87500000  0.00000000  0.87500000  1.953125e-03
  0.87500000  0.12500000  0.00000000  1.953125e-03
  0.87500000  0.12500000  0.12500000  1.953125e-03
  0.87500000  0.12500000  0.25000000  1.953125e-03
  0.87500000  0.12500000  0.37500000  1.953125e-03
  0.87500000  0.12500000  0.50000000  1.953125e-03
  0.87500000  0.12500000  0.62500000  1.953125e-03
  0.87500000  0.12500000  0.75000000  1.953125e-03
  0.87500000  0.12500000  0.87500000  1.953125e-03
  0.87500000  0.25000000  0.00000000  1.953125e-03
  0.87500000  0.25000000  0.12500000  1.953125e-03
  0.87500000  0.25000000  0.25000000  1.953125e-03
  0.87500000  0.25000000  0.37500000  1.953125e-03
  0.87500000  0.25000000  0.50000000  1.953125e-03
  0.87500000  0.25000000  0.62500000  1.953125e-03
  0.87500000  0.25000000  0.75000000  1.953125e-03
  0.87500000  0.25000000  0.87500000  1.953125e-03
  0.87500000  0.37500000  0.00000000  1.953125e-03
  0.87500000  0.37500000  0.12500000  1.953125e-03
  0.87500000  0.37500000  0.25000000  1.953125e-03
  0.87500000  0.37500000  0.37500000  1.953125e-03
  0.87500000  0.37500000  0.50000000  1.953125e-03
  0.87500000  0.37500000  0.62500000  1.953125e-03
  0.87500000  0.37500000  0.75000000  1.953125e-03
  0.87500000  0.37500000  0.87500000  1.953125e-03
  0.87500000  0.50000000  0.00000000  1.953125e-03
  0.87500000  0.50000000  0.12500000  1.953125e-03
  0.87500000  0.50000000  0.25000000  1.953125e-03
  0.87500000  0.50000000  0.37500000  1.953125e-03
  0.87500000  0.50000000  0.50000000  1.953125e-03
  0.87500000  0.50000000  0.62500000  1.953125e-03
  0.87500000  0.50000000  0.75000000  1.953125e-03
  0.87500000  0.50000000  0.87500000  1.953125e-03
  0.87500000  0.62500000  0.00000000  1.953125e-03
  0.87500000  0.62500000  0.12500000  1.953125e-03
  0.87500000  0.62500000  0.25000000  1.953125e-03
  0.87500000  0.62500000  0.37500000  1.953125e-03
  0.87500000  0.62500000  0.50000000  1.953125e-03
  0.87500000  0.62500000  0.62500000  1.953125e-03
  0.87500000  0.62500000  0.75000000  1.953125e-03
  0.87500000  0.62500000  0.87500000  1.953125e-03
  0.87500000  0.75000000  0.00000000  1.953125e-03
  0.87500000  0.75000000  0.12500000  1.953125e-03
  0.87500000  0.75000000  0.25000000  1.953125e-03
  0.87500000  0.75000000  0.37500000  1.953125e-03
  0.87500000  0.75000000  0.50000000  1.953125e-03
  0.87500000  0.75000000  0.62500000  1.953125e-03
  0.87500000  0.75000000  0.75000000  1.953125e-03
  0.87500000  0.75000000  0.87500000  1.953125e-03
  0.87500000  0.87500000  0.00000000  1.953125e-03
  0.87500000  0.87500000  0.12500000  1.953125e-03
  0.87500000  0.87500000  0.25000000  1.953125e-03
  0.87500000  0.87500000  0.37500000  1.953125e-03
  0.87500000  0.87500000  0.50000000  1.953125e-03
  0.87500000  0.87500000  0.62500000  1.953125e-03
  0.87500000  0.87500000  0.75000000  1.953125e-03
  0.87500000  0.87500000  0.87500000  1.953125e-03
