&inputpp
 prefix = "si-nscf"
 phonons = .false.
/

