phonons for Cu
 &inputph
  tr2_ph = 1.0d-12
  prefix = 'cu'
  fildvscf = 'dvscf'
  outdir = './'
  fildyn = 'cu.dyn'
  trans = .true.
  verbosity = 'high'
 /
   1.0   0.0   0.0
