&input
    outdir = './'
    prefix = 'gaas'
    nk1 = 4
    nk2 = 4
    nk3 = 4
    TR_symmetry = .true.
    use_exclude_bands = "wannier"
/

&intw2W
    intw2W_fullzone = .true.
    intw2W_method = 'CONVOLUTION'
/

&ph
/
&DOS
/
&DOS_ph
/
&elphon
/
