-- pw2intw
&inputpp
 prefix = "gaas_irr",
 outdir = "./",
 phonons = .false.,
 dynxml = .false.,
/
