-- pw2intw
&inputpp
 prefix = "gaas",
 mesh_dir = "./",
 phonons = .false.,
 dynxml = .false.,
/
