 &control
    calculation='scf',
    prefix='mgb2',
    pseudo_dir = '.',
    outdir='./',
    tprnfor = .true.,
    tstress = .true.,
    verbosity = 'high'
 /
 &system
    ibrav = 4,
    celldm(1) = 5.826,
    celldm(3) = 1.142,
    nat=  3,
    ntyp = 2,
    ecutwfc = 60
    smearing = 'mp'
    occupations = 'smearing'
    degauss = 0.02
 /
 &electrons
    diagonalization = 'david'
    mixing_mode = 'plain'
    mixing_beta = 0.7
    conv_thr =  1.0d-18
 /
ATOMIC_SPECIES
 Mg  24.305  Mg.pz-n-vbc.UPF
 B   10.811  B.pz-vbc.UPF
ATOMIC_POSITIONS crystal
 Mg       0.000000000   0.000000000   0.000000000
 B        0.333333333   0.666666667   0.500000000
 B        0.666666667   0.333333333   0.500000000
K_POINTS AUTOMATIC
12 12 12 0 0 0
