num_bands       =  8
num_wann        =  5
dis_froz_max    =  9.0  

num_iter        = 1000
dis_num_iter    = 7000

begin projections
B:pz
f=0.5,0.0,0.5:s
f=0.0,0.5,0.5:s
f=0.5,0.5,0.5:s
end projections


begin unit_cell_cart
Bohr
  5.826  0.         0.
 -2.913  5.04546165 0.
  0.     0.         6.6532920
end unit_cell_cart

begin atoms_frac
 Mg       0.000000000   0.000000000   0.000000000
 B        0.333333333   0.666666667   0.500000000
 B        0.666666667   0.333333333   0.500000000
end atoms_frac

mp_grid : 12 12 12

begin kpoints
  0.00000000  0.00000000  0.00000000
  0.00000000  0.00000000  0.08333333
  0.00000000  0.00000000  0.16666667
  0.00000000  0.00000000  0.25000000
  0.00000000  0.00000000  0.33333333
  0.00000000  0.00000000  0.41666667
  0.00000000  0.00000000  0.50000000
  0.00000000  0.00000000  0.58333333
  0.00000000  0.00000000  0.66666667
  0.00000000  0.00000000  0.75000000
  0.00000000  0.00000000  0.83333333
  0.00000000  0.00000000  0.91666667
  0.00000000  0.08333333  0.00000000
  0.00000000  0.08333333  0.08333333
  0.00000000  0.08333333  0.16666667
  0.00000000  0.08333333  0.25000000
  0.00000000  0.08333333  0.33333333
  0.00000000  0.08333333  0.41666667
  0.00000000  0.08333333  0.50000000
  0.00000000  0.08333333  0.58333333
  0.00000000  0.08333333  0.66666667
  0.00000000  0.08333333  0.75000000
  0.00000000  0.08333333  0.83333333
  0.00000000  0.08333333  0.91666667
  0.00000000  0.16666667  0.00000000
  0.00000000  0.16666667  0.08333333
  0.00000000  0.16666667  0.16666667
  0.00000000  0.16666667  0.25000000
  0.00000000  0.16666667  0.33333333
  0.00000000  0.16666667  0.41666667
  0.00000000  0.16666667  0.50000000
  0.00000000  0.16666667  0.58333333
  0.00000000  0.16666667  0.66666667
  0.00000000  0.16666667  0.75000000
  0.00000000  0.16666667  0.83333333
  0.00000000  0.16666667  0.91666667
  0.00000000  0.25000000  0.00000000
  0.00000000  0.25000000  0.08333333
  0.00000000  0.25000000  0.16666667
  0.00000000  0.25000000  0.25000000
  0.00000000  0.25000000  0.33333333
  0.00000000  0.25000000  0.41666667
  0.00000000  0.25000000  0.50000000
  0.00000000  0.25000000  0.58333333
  0.00000000  0.25000000  0.66666667
  0.00000000  0.25000000  0.75000000
  0.00000000  0.25000000  0.83333333
  0.00000000  0.25000000  0.91666667
  0.00000000  0.33333333  0.00000000
  0.00000000  0.33333333  0.08333333
  0.00000000  0.33333333  0.16666667
  0.00000000  0.33333333  0.25000000
  0.00000000  0.33333333  0.33333333
  0.00000000  0.33333333  0.41666667
  0.00000000  0.33333333  0.50000000
  0.00000000  0.33333333  0.58333333
  0.00000000  0.33333333  0.66666667
  0.00000000  0.33333333  0.75000000
  0.00000000  0.33333333  0.83333333
  0.00000000  0.33333333  0.91666667
  0.00000000  0.41666667  0.00000000
  0.00000000  0.41666667  0.08333333
  0.00000000  0.41666667  0.16666667
  0.00000000  0.41666667  0.25000000
  0.00000000  0.41666667  0.33333333
  0.00000000  0.41666667  0.41666667
  0.00000000  0.41666667  0.50000000
  0.00000000  0.41666667  0.58333333
  0.00000000  0.41666667  0.66666667
  0.00000000  0.41666667  0.75000000
  0.00000000  0.41666667  0.83333333
  0.00000000  0.41666667  0.91666667
  0.00000000  0.50000000  0.00000000
  0.00000000  0.50000000  0.08333333
  0.00000000  0.50000000  0.16666667
  0.00000000  0.50000000  0.25000000
  0.00000000  0.50000000  0.33333333
  0.00000000  0.50000000  0.41666667
  0.00000000  0.50000000  0.50000000
  0.00000000  0.50000000  0.58333333
  0.00000000  0.50000000  0.66666667
  0.00000000  0.50000000  0.75000000
  0.00000000  0.50000000  0.83333333
  0.00000000  0.50000000  0.91666667
  0.00000000  0.58333333  0.00000000
  0.00000000  0.58333333  0.08333333
  0.00000000  0.58333333  0.16666667
  0.00000000  0.58333333  0.25000000
  0.00000000  0.58333333  0.33333333
  0.00000000  0.58333333  0.41666667
  0.00000000  0.58333333  0.50000000
  0.00000000  0.58333333  0.58333333
  0.00000000  0.58333333  0.66666667
  0.00000000  0.58333333  0.75000000
  0.00000000  0.58333333  0.83333333
  0.00000000  0.58333333  0.91666667
  0.00000000  0.66666667  0.00000000
  0.00000000  0.66666667  0.08333333
  0.00000000  0.66666667  0.16666667
  0.00000000  0.66666667  0.25000000
  0.00000000  0.66666667  0.33333333
  0.00000000  0.66666667  0.41666667
  0.00000000  0.66666667  0.50000000
  0.00000000  0.66666667  0.58333333
  0.00000000  0.66666667  0.66666667
  0.00000000  0.66666667  0.75000000
  0.00000000  0.66666667  0.83333333
  0.00000000  0.66666667  0.91666667
  0.00000000  0.75000000  0.00000000
  0.00000000  0.75000000  0.08333333
  0.00000000  0.75000000  0.16666667
  0.00000000  0.75000000  0.25000000
  0.00000000  0.75000000  0.33333333
  0.00000000  0.75000000  0.41666667
  0.00000000  0.75000000  0.50000000
  0.00000000  0.75000000  0.58333333
  0.00000000  0.75000000  0.66666667
  0.00000000  0.75000000  0.75000000
  0.00000000  0.75000000  0.83333333
  0.00000000  0.75000000  0.91666667
  0.00000000  0.83333333  0.00000000
  0.00000000  0.83333333  0.08333333
  0.00000000  0.83333333  0.16666667
  0.00000000  0.83333333  0.25000000
  0.00000000  0.83333333  0.33333333
  0.00000000  0.83333333  0.41666667
  0.00000000  0.83333333  0.50000000
  0.00000000  0.83333333  0.58333333
  0.00000000  0.83333333  0.66666667
  0.00000000  0.83333333  0.75000000
  0.00000000  0.83333333  0.83333333
  0.00000000  0.83333333  0.91666667
  0.00000000  0.91666667  0.00000000
  0.00000000  0.91666667  0.08333333
  0.00000000  0.91666667  0.16666667
  0.00000000  0.91666667  0.25000000
  0.00000000  0.91666667  0.33333333
  0.00000000  0.91666667  0.41666667
  0.00000000  0.91666667  0.50000000
  0.00000000  0.91666667  0.58333333
  0.00000000  0.91666667  0.66666667
  0.00000000  0.91666667  0.75000000
  0.00000000  0.91666667  0.83333333
  0.00000000  0.91666667  0.91666667
  0.08333333  0.00000000  0.00000000
  0.08333333  0.00000000  0.08333333
  0.08333333  0.00000000  0.16666667
  0.08333333  0.00000000  0.25000000
  0.08333333  0.00000000  0.33333333
  0.08333333  0.00000000  0.41666667
  0.08333333  0.00000000  0.50000000
  0.08333333  0.00000000  0.58333333
  0.08333333  0.00000000  0.66666667
  0.08333333  0.00000000  0.75000000
  0.08333333  0.00000000  0.83333333
  0.08333333  0.00000000  0.91666667
  0.08333333  0.08333333  0.00000000
  0.08333333  0.08333333  0.08333333
  0.08333333  0.08333333  0.16666667
  0.08333333  0.08333333  0.25000000
  0.08333333  0.08333333  0.33333333
  0.08333333  0.08333333  0.41666667
  0.08333333  0.08333333  0.50000000
  0.08333333  0.08333333  0.58333333
  0.08333333  0.08333333  0.66666667
  0.08333333  0.08333333  0.75000000
  0.08333333  0.08333333  0.83333333
  0.08333333  0.08333333  0.91666667
  0.08333333  0.16666667  0.00000000
  0.08333333  0.16666667  0.08333333
  0.08333333  0.16666667  0.16666667
  0.08333333  0.16666667  0.25000000
  0.08333333  0.16666667  0.33333333
  0.08333333  0.16666667  0.41666667
  0.08333333  0.16666667  0.50000000
  0.08333333  0.16666667  0.58333333
  0.08333333  0.16666667  0.66666667
  0.08333333  0.16666667  0.75000000
  0.08333333  0.16666667  0.83333333
  0.08333333  0.16666667  0.91666667
  0.08333333  0.25000000  0.00000000
  0.08333333  0.25000000  0.08333333
  0.08333333  0.25000000  0.16666667
  0.08333333  0.25000000  0.25000000
  0.08333333  0.25000000  0.33333333
  0.08333333  0.25000000  0.41666667
  0.08333333  0.25000000  0.50000000
  0.08333333  0.25000000  0.58333333
  0.08333333  0.25000000  0.66666667
  0.08333333  0.25000000  0.75000000
  0.08333333  0.25000000  0.83333333
  0.08333333  0.25000000  0.91666667
  0.08333333  0.33333333  0.00000000
  0.08333333  0.33333333  0.08333333
  0.08333333  0.33333333  0.16666667
  0.08333333  0.33333333  0.25000000
  0.08333333  0.33333333  0.33333333
  0.08333333  0.33333333  0.41666667
  0.08333333  0.33333333  0.50000000
  0.08333333  0.33333333  0.58333333
  0.08333333  0.33333333  0.66666667
  0.08333333  0.33333333  0.75000000
  0.08333333  0.33333333  0.83333333
  0.08333333  0.33333333  0.91666667
  0.08333333  0.41666667  0.00000000
  0.08333333  0.41666667  0.08333333
  0.08333333  0.41666667  0.16666667
  0.08333333  0.41666667  0.25000000
  0.08333333  0.41666667  0.33333333
  0.08333333  0.41666667  0.41666667
  0.08333333  0.41666667  0.50000000
  0.08333333  0.41666667  0.58333333
  0.08333333  0.41666667  0.66666667
  0.08333333  0.41666667  0.75000000
  0.08333333  0.41666667  0.83333333
  0.08333333  0.41666667  0.91666667
  0.08333333  0.50000000  0.00000000
  0.08333333  0.50000000  0.08333333
  0.08333333  0.50000000  0.16666667
  0.08333333  0.50000000  0.25000000
  0.08333333  0.50000000  0.33333333
  0.08333333  0.50000000  0.41666667
  0.08333333  0.50000000  0.50000000
  0.08333333  0.50000000  0.58333333
  0.08333333  0.50000000  0.66666667
  0.08333333  0.50000000  0.75000000
  0.08333333  0.50000000  0.83333333
  0.08333333  0.50000000  0.91666667
  0.08333333  0.58333333  0.00000000
  0.08333333  0.58333333  0.08333333
  0.08333333  0.58333333  0.16666667
  0.08333333  0.58333333  0.25000000
  0.08333333  0.58333333  0.33333333
  0.08333333  0.58333333  0.41666667
  0.08333333  0.58333333  0.50000000
  0.08333333  0.58333333  0.58333333
  0.08333333  0.58333333  0.66666667
  0.08333333  0.58333333  0.75000000
  0.08333333  0.58333333  0.83333333
  0.08333333  0.58333333  0.91666667
  0.08333333  0.66666667  0.00000000
  0.08333333  0.66666667  0.08333333
  0.08333333  0.66666667  0.16666667
  0.08333333  0.66666667  0.25000000
  0.08333333  0.66666667  0.33333333
  0.08333333  0.66666667  0.41666667
  0.08333333  0.66666667  0.50000000
  0.08333333  0.66666667  0.58333333
  0.08333333  0.66666667  0.66666667
  0.08333333  0.66666667  0.75000000
  0.08333333  0.66666667  0.83333333
  0.08333333  0.66666667  0.91666667
  0.08333333  0.75000000  0.00000000
  0.08333333  0.75000000  0.08333333
  0.08333333  0.75000000  0.16666667
  0.08333333  0.75000000  0.25000000
  0.08333333  0.75000000  0.33333333
  0.08333333  0.75000000  0.41666667
  0.08333333  0.75000000  0.50000000
  0.08333333  0.75000000  0.58333333
  0.08333333  0.75000000  0.66666667
  0.08333333  0.75000000  0.75000000
  0.08333333  0.75000000  0.83333333
  0.08333333  0.75000000  0.91666667
  0.08333333  0.83333333  0.00000000
  0.08333333  0.83333333  0.08333333
  0.08333333  0.83333333  0.16666667
  0.08333333  0.83333333  0.25000000
  0.08333333  0.83333333  0.33333333
  0.08333333  0.83333333  0.41666667
  0.08333333  0.83333333  0.50000000
  0.08333333  0.83333333  0.58333333
  0.08333333  0.83333333  0.66666667
  0.08333333  0.83333333  0.75000000
  0.08333333  0.83333333  0.83333333
  0.08333333  0.83333333  0.91666667
  0.08333333  0.91666667  0.00000000
  0.08333333  0.91666667  0.08333333
  0.08333333  0.91666667  0.16666667
  0.08333333  0.91666667  0.25000000
  0.08333333  0.91666667  0.33333333
  0.08333333  0.91666667  0.41666667
  0.08333333  0.91666667  0.50000000
  0.08333333  0.91666667  0.58333333
  0.08333333  0.91666667  0.66666667
  0.08333333  0.91666667  0.75000000
  0.08333333  0.91666667  0.83333333
  0.08333333  0.91666667  0.91666667
  0.16666667  0.00000000  0.00000000
  0.16666667  0.00000000  0.08333333
  0.16666667  0.00000000  0.16666667
  0.16666667  0.00000000  0.25000000
  0.16666667  0.00000000  0.33333333
  0.16666667  0.00000000  0.41666667
  0.16666667  0.00000000  0.50000000
  0.16666667  0.00000000  0.58333333
  0.16666667  0.00000000  0.66666667
  0.16666667  0.00000000  0.75000000
  0.16666667  0.00000000  0.83333333
  0.16666667  0.00000000  0.91666667
  0.16666667  0.08333333  0.00000000
  0.16666667  0.08333333  0.08333333
  0.16666667  0.08333333  0.16666667
  0.16666667  0.08333333  0.25000000
  0.16666667  0.08333333  0.33333333
  0.16666667  0.08333333  0.41666667
  0.16666667  0.08333333  0.50000000
  0.16666667  0.08333333  0.58333333
  0.16666667  0.08333333  0.66666667
  0.16666667  0.08333333  0.75000000
  0.16666667  0.08333333  0.83333333
  0.16666667  0.08333333  0.91666667
  0.16666667  0.16666667  0.00000000
  0.16666667  0.16666667  0.08333333
  0.16666667  0.16666667  0.16666667
  0.16666667  0.16666667  0.25000000
  0.16666667  0.16666667  0.33333333
  0.16666667  0.16666667  0.41666667
  0.16666667  0.16666667  0.50000000
  0.16666667  0.16666667  0.58333333
  0.16666667  0.16666667  0.66666667
  0.16666667  0.16666667  0.75000000
  0.16666667  0.16666667  0.83333333
  0.16666667  0.16666667  0.91666667
  0.16666667  0.25000000  0.00000000
  0.16666667  0.25000000  0.08333333
  0.16666667  0.25000000  0.16666667
  0.16666667  0.25000000  0.25000000
  0.16666667  0.25000000  0.33333333
  0.16666667  0.25000000  0.41666667
  0.16666667  0.25000000  0.50000000
  0.16666667  0.25000000  0.58333333
  0.16666667  0.25000000  0.66666667
  0.16666667  0.25000000  0.75000000
  0.16666667  0.25000000  0.83333333
  0.16666667  0.25000000  0.91666667
  0.16666667  0.33333333  0.00000000
  0.16666667  0.33333333  0.08333333
  0.16666667  0.33333333  0.16666667
  0.16666667  0.33333333  0.25000000
  0.16666667  0.33333333  0.33333333
  0.16666667  0.33333333  0.41666667
  0.16666667  0.33333333  0.50000000
  0.16666667  0.33333333  0.58333333
  0.16666667  0.33333333  0.66666667
  0.16666667  0.33333333  0.75000000
  0.16666667  0.33333333  0.83333333
  0.16666667  0.33333333  0.91666667
  0.16666667  0.41666667  0.00000000
  0.16666667  0.41666667  0.08333333
  0.16666667  0.41666667  0.16666667
  0.16666667  0.41666667  0.25000000
  0.16666667  0.41666667  0.33333333
  0.16666667  0.41666667  0.41666667
  0.16666667  0.41666667  0.50000000
  0.16666667  0.41666667  0.58333333
  0.16666667  0.41666667  0.66666667
  0.16666667  0.41666667  0.75000000
  0.16666667  0.41666667  0.83333333
  0.16666667  0.41666667  0.91666667
  0.16666667  0.50000000  0.00000000
  0.16666667  0.50000000  0.08333333
  0.16666667  0.50000000  0.16666667
  0.16666667  0.50000000  0.25000000
  0.16666667  0.50000000  0.33333333
  0.16666667  0.50000000  0.41666667
  0.16666667  0.50000000  0.50000000
  0.16666667  0.50000000  0.58333333
  0.16666667  0.50000000  0.66666667
  0.16666667  0.50000000  0.75000000
  0.16666667  0.50000000  0.83333333
  0.16666667  0.50000000  0.91666667
  0.16666667  0.58333333  0.00000000
  0.16666667  0.58333333  0.08333333
  0.16666667  0.58333333  0.16666667
  0.16666667  0.58333333  0.25000000
  0.16666667  0.58333333  0.33333333
  0.16666667  0.58333333  0.41666667
  0.16666667  0.58333333  0.50000000
  0.16666667  0.58333333  0.58333333
  0.16666667  0.58333333  0.66666667
  0.16666667  0.58333333  0.75000000
  0.16666667  0.58333333  0.83333333
  0.16666667  0.58333333  0.91666667
  0.16666667  0.66666667  0.00000000
  0.16666667  0.66666667  0.08333333
  0.16666667  0.66666667  0.16666667
  0.16666667  0.66666667  0.25000000
  0.16666667  0.66666667  0.33333333
  0.16666667  0.66666667  0.41666667
  0.16666667  0.66666667  0.50000000
  0.16666667  0.66666667  0.58333333
  0.16666667  0.66666667  0.66666667
  0.16666667  0.66666667  0.75000000
  0.16666667  0.66666667  0.83333333
  0.16666667  0.66666667  0.91666667
  0.16666667  0.75000000  0.00000000
  0.16666667  0.75000000  0.08333333
  0.16666667  0.75000000  0.16666667
  0.16666667  0.75000000  0.25000000
  0.16666667  0.75000000  0.33333333
  0.16666667  0.75000000  0.41666667
  0.16666667  0.75000000  0.50000000
  0.16666667  0.75000000  0.58333333
  0.16666667  0.75000000  0.66666667
  0.16666667  0.75000000  0.75000000
  0.16666667  0.75000000  0.83333333
  0.16666667  0.75000000  0.91666667
  0.16666667  0.83333333  0.00000000
  0.16666667  0.83333333  0.08333333
  0.16666667  0.83333333  0.16666667
  0.16666667  0.83333333  0.25000000
  0.16666667  0.83333333  0.33333333
  0.16666667  0.83333333  0.41666667
  0.16666667  0.83333333  0.50000000
  0.16666667  0.83333333  0.58333333
  0.16666667  0.83333333  0.66666667
  0.16666667  0.83333333  0.75000000
  0.16666667  0.83333333  0.83333333
  0.16666667  0.83333333  0.91666667
  0.16666667  0.91666667  0.00000000
  0.16666667  0.91666667  0.08333333
  0.16666667  0.91666667  0.16666667
  0.16666667  0.91666667  0.25000000
  0.16666667  0.91666667  0.33333333
  0.16666667  0.91666667  0.41666667
  0.16666667  0.91666667  0.50000000
  0.16666667  0.91666667  0.58333333
  0.16666667  0.91666667  0.66666667
  0.16666667  0.91666667  0.75000000
  0.16666667  0.91666667  0.83333333
  0.16666667  0.91666667  0.91666667
  0.25000000  0.00000000  0.00000000
  0.25000000  0.00000000  0.08333333
  0.25000000  0.00000000  0.16666667
  0.25000000  0.00000000  0.25000000
  0.25000000  0.00000000  0.33333333
  0.25000000  0.00000000  0.41666667
  0.25000000  0.00000000  0.50000000
  0.25000000  0.00000000  0.58333333
  0.25000000  0.00000000  0.66666667
  0.25000000  0.00000000  0.75000000
  0.25000000  0.00000000  0.83333333
  0.25000000  0.00000000  0.91666667
  0.25000000  0.08333333  0.00000000
  0.25000000  0.08333333  0.08333333
  0.25000000  0.08333333  0.16666667
  0.25000000  0.08333333  0.25000000
  0.25000000  0.08333333  0.33333333
  0.25000000  0.08333333  0.41666667
  0.25000000  0.08333333  0.50000000
  0.25000000  0.08333333  0.58333333
  0.25000000  0.08333333  0.66666667
  0.25000000  0.08333333  0.75000000
  0.25000000  0.08333333  0.83333333
  0.25000000  0.08333333  0.91666667
  0.25000000  0.16666667  0.00000000
  0.25000000  0.16666667  0.08333333
  0.25000000  0.16666667  0.16666667
  0.25000000  0.16666667  0.25000000
  0.25000000  0.16666667  0.33333333
  0.25000000  0.16666667  0.41666667
  0.25000000  0.16666667  0.50000000
  0.25000000  0.16666667  0.58333333
  0.25000000  0.16666667  0.66666667
  0.25000000  0.16666667  0.75000000
  0.25000000  0.16666667  0.83333333
  0.25000000  0.16666667  0.91666667
  0.25000000  0.25000000  0.00000000
  0.25000000  0.25000000  0.08333333
  0.25000000  0.25000000  0.16666667
  0.25000000  0.25000000  0.25000000
  0.25000000  0.25000000  0.33333333
  0.25000000  0.25000000  0.41666667
  0.25000000  0.25000000  0.50000000
  0.25000000  0.25000000  0.58333333
  0.25000000  0.25000000  0.66666667
  0.25000000  0.25000000  0.75000000
  0.25000000  0.25000000  0.83333333
  0.25000000  0.25000000  0.91666667
  0.25000000  0.33333333  0.00000000
  0.25000000  0.33333333  0.08333333
  0.25000000  0.33333333  0.16666667
  0.25000000  0.33333333  0.25000000
  0.25000000  0.33333333  0.33333333
  0.25000000  0.33333333  0.41666667
  0.25000000  0.33333333  0.50000000
  0.25000000  0.33333333  0.58333333
  0.25000000  0.33333333  0.66666667
  0.25000000  0.33333333  0.75000000
  0.25000000  0.33333333  0.83333333
  0.25000000  0.33333333  0.91666667
  0.25000000  0.41666667  0.00000000
  0.25000000  0.41666667  0.08333333
  0.25000000  0.41666667  0.16666667
  0.25000000  0.41666667  0.25000000
  0.25000000  0.41666667  0.33333333
  0.25000000  0.41666667  0.41666667
  0.25000000  0.41666667  0.50000000
  0.25000000  0.41666667  0.58333333
  0.25000000  0.41666667  0.66666667
  0.25000000  0.41666667  0.75000000
  0.25000000  0.41666667  0.83333333
  0.25000000  0.41666667  0.91666667
  0.25000000  0.50000000  0.00000000
  0.25000000  0.50000000  0.08333333
  0.25000000  0.50000000  0.16666667
  0.25000000  0.50000000  0.25000000
  0.25000000  0.50000000  0.33333333
  0.25000000  0.50000000  0.41666667
  0.25000000  0.50000000  0.50000000
  0.25000000  0.50000000  0.58333333
  0.25000000  0.50000000  0.66666667
  0.25000000  0.50000000  0.75000000
  0.25000000  0.50000000  0.83333333
  0.25000000  0.50000000  0.91666667
  0.25000000  0.58333333  0.00000000
  0.25000000  0.58333333  0.08333333
  0.25000000  0.58333333  0.16666667
  0.25000000  0.58333333  0.25000000
  0.25000000  0.58333333  0.33333333
  0.25000000  0.58333333  0.41666667
  0.25000000  0.58333333  0.50000000
  0.25000000  0.58333333  0.58333333
  0.25000000  0.58333333  0.66666667
  0.25000000  0.58333333  0.75000000
  0.25000000  0.58333333  0.83333333
  0.25000000  0.58333333  0.91666667
  0.25000000  0.66666667  0.00000000
  0.25000000  0.66666667  0.08333333
  0.25000000  0.66666667  0.16666667
  0.25000000  0.66666667  0.25000000
  0.25000000  0.66666667  0.33333333
  0.25000000  0.66666667  0.41666667
  0.25000000  0.66666667  0.50000000
  0.25000000  0.66666667  0.58333333
  0.25000000  0.66666667  0.66666667
  0.25000000  0.66666667  0.75000000
  0.25000000  0.66666667  0.83333333
  0.25000000  0.66666667  0.91666667
  0.25000000  0.75000000  0.00000000
  0.25000000  0.75000000  0.08333333
  0.25000000  0.75000000  0.16666667
  0.25000000  0.75000000  0.25000000
  0.25000000  0.75000000  0.33333333
  0.25000000  0.75000000  0.41666667
  0.25000000  0.75000000  0.50000000
  0.25000000  0.75000000  0.58333333
  0.25000000  0.75000000  0.66666667
  0.25000000  0.75000000  0.75000000
  0.25000000  0.75000000  0.83333333
  0.25000000  0.75000000  0.91666667
  0.25000000  0.83333333  0.00000000
  0.25000000  0.83333333  0.08333333
  0.25000000  0.83333333  0.16666667
  0.25000000  0.83333333  0.25000000
  0.25000000  0.83333333  0.33333333
  0.25000000  0.83333333  0.41666667
  0.25000000  0.83333333  0.50000000
  0.25000000  0.83333333  0.58333333
  0.25000000  0.83333333  0.66666667
  0.25000000  0.83333333  0.75000000
  0.25000000  0.83333333  0.83333333
  0.25000000  0.83333333  0.91666667
  0.25000000  0.91666667  0.00000000
  0.25000000  0.91666667  0.08333333
  0.25000000  0.91666667  0.16666667
  0.25000000  0.91666667  0.25000000
  0.25000000  0.91666667  0.33333333
  0.25000000  0.91666667  0.41666667
  0.25000000  0.91666667  0.50000000
  0.25000000  0.91666667  0.58333333
  0.25000000  0.91666667  0.66666667
  0.25000000  0.91666667  0.75000000
  0.25000000  0.91666667  0.83333333
  0.25000000  0.91666667  0.91666667
  0.33333333  0.00000000  0.00000000
  0.33333333  0.00000000  0.08333333
  0.33333333  0.00000000  0.16666667
  0.33333333  0.00000000  0.25000000
  0.33333333  0.00000000  0.33333333
  0.33333333  0.00000000  0.41666667
  0.33333333  0.00000000  0.50000000
  0.33333333  0.00000000  0.58333333
  0.33333333  0.00000000  0.66666667
  0.33333333  0.00000000  0.75000000
  0.33333333  0.00000000  0.83333333
  0.33333333  0.00000000  0.91666667
  0.33333333  0.08333333  0.00000000
  0.33333333  0.08333333  0.08333333
  0.33333333  0.08333333  0.16666667
  0.33333333  0.08333333  0.25000000
  0.33333333  0.08333333  0.33333333
  0.33333333  0.08333333  0.41666667
  0.33333333  0.08333333  0.50000000
  0.33333333  0.08333333  0.58333333
  0.33333333  0.08333333  0.66666667
  0.33333333  0.08333333  0.75000000
  0.33333333  0.08333333  0.83333333
  0.33333333  0.08333333  0.91666667
  0.33333333  0.16666667  0.00000000
  0.33333333  0.16666667  0.08333333
  0.33333333  0.16666667  0.16666667
  0.33333333  0.16666667  0.25000000
  0.33333333  0.16666667  0.33333333
  0.33333333  0.16666667  0.41666667
  0.33333333  0.16666667  0.50000000
  0.33333333  0.16666667  0.58333333
  0.33333333  0.16666667  0.66666667
  0.33333333  0.16666667  0.75000000
  0.33333333  0.16666667  0.83333333
  0.33333333  0.16666667  0.91666667
  0.33333333  0.25000000  0.00000000
  0.33333333  0.25000000  0.08333333
  0.33333333  0.25000000  0.16666667
  0.33333333  0.25000000  0.25000000
  0.33333333  0.25000000  0.33333333
  0.33333333  0.25000000  0.41666667
  0.33333333  0.25000000  0.50000000
  0.33333333  0.25000000  0.58333333
  0.33333333  0.25000000  0.66666667
  0.33333333  0.25000000  0.75000000
  0.33333333  0.25000000  0.83333333
  0.33333333  0.25000000  0.91666667
  0.33333333  0.33333333  0.00000000
  0.33333333  0.33333333  0.08333333
  0.33333333  0.33333333  0.16666667
  0.33333333  0.33333333  0.25000000
  0.33333333  0.33333333  0.33333333
  0.33333333  0.33333333  0.41666667
  0.33333333  0.33333333  0.50000000
  0.33333333  0.33333333  0.58333333
  0.33333333  0.33333333  0.66666667
  0.33333333  0.33333333  0.75000000
  0.33333333  0.33333333  0.83333333
  0.33333333  0.33333333  0.91666667
  0.33333333  0.41666667  0.00000000
  0.33333333  0.41666667  0.08333333
  0.33333333  0.41666667  0.16666667
  0.33333333  0.41666667  0.25000000
  0.33333333  0.41666667  0.33333333
  0.33333333  0.41666667  0.41666667
  0.33333333  0.41666667  0.50000000
  0.33333333  0.41666667  0.58333333
  0.33333333  0.41666667  0.66666667
  0.33333333  0.41666667  0.75000000
  0.33333333  0.41666667  0.83333333
  0.33333333  0.41666667  0.91666667
  0.33333333  0.50000000  0.00000000
  0.33333333  0.50000000  0.08333333
  0.33333333  0.50000000  0.16666667
  0.33333333  0.50000000  0.25000000
  0.33333333  0.50000000  0.33333333
  0.33333333  0.50000000  0.41666667
  0.33333333  0.50000000  0.50000000
  0.33333333  0.50000000  0.58333333
  0.33333333  0.50000000  0.66666667
  0.33333333  0.50000000  0.75000000
  0.33333333  0.50000000  0.83333333
  0.33333333  0.50000000  0.91666667
  0.33333333  0.58333333  0.00000000
  0.33333333  0.58333333  0.08333333
  0.33333333  0.58333333  0.16666667
  0.33333333  0.58333333  0.25000000
  0.33333333  0.58333333  0.33333333
  0.33333333  0.58333333  0.41666667
  0.33333333  0.58333333  0.50000000
  0.33333333  0.58333333  0.58333333
  0.33333333  0.58333333  0.66666667
  0.33333333  0.58333333  0.75000000
  0.33333333  0.58333333  0.83333333
  0.33333333  0.58333333  0.91666667
  0.33333333  0.66666667  0.00000000
  0.33333333  0.66666667  0.08333333
  0.33333333  0.66666667  0.16666667
  0.33333333  0.66666667  0.25000000
  0.33333333  0.66666667  0.33333333
  0.33333333  0.66666667  0.41666667
  0.33333333  0.66666667  0.50000000
  0.33333333  0.66666667  0.58333333
  0.33333333  0.66666667  0.66666667
  0.33333333  0.66666667  0.75000000
  0.33333333  0.66666667  0.83333333
  0.33333333  0.66666667  0.91666667
  0.33333333  0.75000000  0.00000000
  0.33333333  0.75000000  0.08333333
  0.33333333  0.75000000  0.16666667
  0.33333333  0.75000000  0.25000000
  0.33333333  0.75000000  0.33333333
  0.33333333  0.75000000  0.41666667
  0.33333333  0.75000000  0.50000000
  0.33333333  0.75000000  0.58333333
  0.33333333  0.75000000  0.66666667
  0.33333333  0.75000000  0.75000000
  0.33333333  0.75000000  0.83333333
  0.33333333  0.75000000  0.91666667
  0.33333333  0.83333333  0.00000000
  0.33333333  0.83333333  0.08333333
  0.33333333  0.83333333  0.16666667
  0.33333333  0.83333333  0.25000000
  0.33333333  0.83333333  0.33333333
  0.33333333  0.83333333  0.41666667
  0.33333333  0.83333333  0.50000000
  0.33333333  0.83333333  0.58333333
  0.33333333  0.83333333  0.66666667
  0.33333333  0.83333333  0.75000000
  0.33333333  0.83333333  0.83333333
  0.33333333  0.83333333  0.91666667
  0.33333333  0.91666667  0.00000000
  0.33333333  0.91666667  0.08333333
  0.33333333  0.91666667  0.16666667
  0.33333333  0.91666667  0.25000000
  0.33333333  0.91666667  0.33333333
  0.33333333  0.91666667  0.41666667
  0.33333333  0.91666667  0.50000000
  0.33333333  0.91666667  0.58333333
  0.33333333  0.91666667  0.66666667
  0.33333333  0.91666667  0.75000000
  0.33333333  0.91666667  0.83333333
  0.33333333  0.91666667  0.91666667
  0.41666667  0.00000000  0.00000000
  0.41666667  0.00000000  0.08333333
  0.41666667  0.00000000  0.16666667
  0.41666667  0.00000000  0.25000000
  0.41666667  0.00000000  0.33333333
  0.41666667  0.00000000  0.41666667
  0.41666667  0.00000000  0.50000000
  0.41666667  0.00000000  0.58333333
  0.41666667  0.00000000  0.66666667
  0.41666667  0.00000000  0.75000000
  0.41666667  0.00000000  0.83333333
  0.41666667  0.00000000  0.91666667
  0.41666667  0.08333333  0.00000000
  0.41666667  0.08333333  0.08333333
  0.41666667  0.08333333  0.16666667
  0.41666667  0.08333333  0.25000000
  0.41666667  0.08333333  0.33333333
  0.41666667  0.08333333  0.41666667
  0.41666667  0.08333333  0.50000000
  0.41666667  0.08333333  0.58333333
  0.41666667  0.08333333  0.66666667
  0.41666667  0.08333333  0.75000000
  0.41666667  0.08333333  0.83333333
  0.41666667  0.08333333  0.91666667
  0.41666667  0.16666667  0.00000000
  0.41666667  0.16666667  0.08333333
  0.41666667  0.16666667  0.16666667
  0.41666667  0.16666667  0.25000000
  0.41666667  0.16666667  0.33333333
  0.41666667  0.16666667  0.41666667
  0.41666667  0.16666667  0.50000000
  0.41666667  0.16666667  0.58333333
  0.41666667  0.16666667  0.66666667
  0.41666667  0.16666667  0.75000000
  0.41666667  0.16666667  0.83333333
  0.41666667  0.16666667  0.91666667
  0.41666667  0.25000000  0.00000000
  0.41666667  0.25000000  0.08333333
  0.41666667  0.25000000  0.16666667
  0.41666667  0.25000000  0.25000000
  0.41666667  0.25000000  0.33333333
  0.41666667  0.25000000  0.41666667
  0.41666667  0.25000000  0.50000000
  0.41666667  0.25000000  0.58333333
  0.41666667  0.25000000  0.66666667
  0.41666667  0.25000000  0.75000000
  0.41666667  0.25000000  0.83333333
  0.41666667  0.25000000  0.91666667
  0.41666667  0.33333333  0.00000000
  0.41666667  0.33333333  0.08333333
  0.41666667  0.33333333  0.16666667
  0.41666667  0.33333333  0.25000000
  0.41666667  0.33333333  0.33333333
  0.41666667  0.33333333  0.41666667
  0.41666667  0.33333333  0.50000000
  0.41666667  0.33333333  0.58333333
  0.41666667  0.33333333  0.66666667
  0.41666667  0.33333333  0.75000000
  0.41666667  0.33333333  0.83333333
  0.41666667  0.33333333  0.91666667
  0.41666667  0.41666667  0.00000000
  0.41666667  0.41666667  0.08333333
  0.41666667  0.41666667  0.16666667
  0.41666667  0.41666667  0.25000000
  0.41666667  0.41666667  0.33333333
  0.41666667  0.41666667  0.41666667
  0.41666667  0.41666667  0.50000000
  0.41666667  0.41666667  0.58333333
  0.41666667  0.41666667  0.66666667
  0.41666667  0.41666667  0.75000000
  0.41666667  0.41666667  0.83333333
  0.41666667  0.41666667  0.91666667
  0.41666667  0.50000000  0.00000000
  0.41666667  0.50000000  0.08333333
  0.41666667  0.50000000  0.16666667
  0.41666667  0.50000000  0.25000000