mgb2
&inputpp
 outdir = "./"
 prefix = "mgb2",
 phdir = "./",
 phonons = .true.,
 nqirr = 6,
 fildvscf = "dvscf"
 fildyn = "mgb2.dyn"
/

