
SystemName          bulk silicon
SystemLabel         si

NumberOfAtoms       2
NumberOfSpecies     1

%block ChemicalSpeciesLabel
 1  14  Si
%endblock ChemicalSpeciesLabel

#Spin non-colinear

XC.Functional LDA
XC.Authors PZ

PAO.BasisSize       DZP
PAO.EnergyShift     300 meV

MeshCutoff          200.0 Ry

DM.UseSaveDM true
DM.MixingWeight      0.3
DM.NumberPulay       3
DM.Tolerance         1.d-4

TimeReversalSymmetryForKpoints false
%block kgrid_Monkhorst_Pack
   8   0    0    0.
   0   8    0    0.
   0   0    8    0.
%endblock kgrid_Monkhorst_Pack

M.UseSaveDM true

SolutionMethod       diagon
NumberOfEigenStates 10
ElectronicTemperature  25 meV

Siesta2Wannier90.WriteMmn true
Siesta2Wannier90.WriteAmn true
Siesta2Wannier90.WriteEig true

LatticeConstant    10.2033864 Bohr
%block LatticeVectors
  -0.500  0.000  0.500
   0.000  0.500  0.500
  -0.500  0.500  0.000
%endblock LatticeVectors

AtomicCoordinatesFormat  ScaledCartesian
%block AtomicCoordinatesAndAtomicSpecies
     0.00    0.00   0.00     1
     0.25    0.25   0.25     1
%endblock AtomicCoordinatesAndAtomicSpecies

WaveFuncKPointsScale ReciprocalLatticeVectors
%block WaveFuncKPoints
    0.000000    0.000000    0.000000
    0.000000    0.000000    0.125000
    0.000000    0.000000    0.250000
    0.000000    0.000000    0.375000
    0.000000    0.000000    0.500000
    0.000000    0.125000    0.125000
    0.000000    0.125000    0.250000
    0.000000    0.125000    0.375000
    0.000000    0.125000    0.500000
    0.000000    0.125000    0.625000
    0.000000    0.125000    0.750000
    0.000000    0.125000    0.875000
    0.000000    0.250000    0.250000
    0.000000    0.250000    0.375000
    0.000000    0.250000    0.500000
    0.000000    0.250000    0.625000
    0.000000    0.250000    0.750000
    0.000000    0.375000    0.375000
    0.000000    0.375000    0.500000
    0.000000    0.375000    0.625000
    0.000000    0.500000    0.500000
    0.125000    0.250000    0.375000
    0.125000    0.250000    0.500000
    0.125000    0.250000    0.625000
    0.125000    0.375000    0.500000
    0.125000    0.375000    0.625000
    0.125000    0.375000    0.750000
    0.125000    0.500000    0.625000
    0.250000    0.500000    0.750000
%endblock WaveFuncKPoints
