proba
&inputpp
 prefix = "gaas",
 ph_dir = "./",
 phonons = .true.,
 nqirr = 3,
 dynxml = .false.,
/

