&input
 fildyn='gaas.dyn',
 zasr='simple',
 flfrc='gaas.fc'
 /
