SystemName          bulk silicon
SystemLabel         si

#Siesta2Wannier90.WriteMmn true
#Siesta2Wannier90.WriteAmn true
#Siesta2Wannier90.WriteEig true

NumberOfAtoms       2
NumberOfSpecies     1

%block ChemicalSpeciesLabel
 1  14  Si
%endblock ChemicalSpeciesLabel

LatticeConstant    10.2048933684 Bohr
%block LatticeVectors
 -0.500  0.000  0.500
  0.000  0.500  0.500
 -0.500  0.500  0.000
%endblock LatticeVectors

AtomicCoordinatesFormat  ScaledByLatticeVectors
%block AtomicCoordinatesAndAtomicSpecies
 -0.125  -0.125  -0.125     1
  0.125   0.125   0.125     1
%endblock AtomicCoordinatesAndAtomicSpecies

XC.Functional LDA
XC.Authors PZ

PAO.BasisSize          DZ
#PAO.EnergyShift        300 meV

DM.UseSaveDM           true
DM.MixingWeight        0.3
DM.NumberPulay         3
DM.Tolerance           1.d-5

SolutionMethod         diagon
Diag.Algorithm         expert
Diag.ParallelOverK     false
NumberOfEigenStates    10
OccupationFunction     FD
ElectronicTemperature  25 meV

%block kgrid_Monkhorst_Pack
 8   0   0    0.
 0   8   0    0.
 0   0   8    0.
%endblock kgrid_Monkhorst_Pack

BandLinesScale ReciprocalLatticeVectors
%block BandPoints
    0.500000    0.500000    0.500000
    0.475000    0.475000    0.475000
    0.450000    0.450000    0.450000
    0.425000    0.425000    0.425000
    0.400000    0.400000    0.400000
    0.375000    0.375000    0.375000
    0.350000    0.350000    0.350000
    0.325000    0.325000    0.325000
    0.300000    0.300000    0.300000
    0.275000    0.275000    0.275000
    0.250000    0.250000    0.250000
    0.225000    0.225000    0.225000
    0.200000    0.200000    0.200000
    0.175000    0.175000    0.175000
    0.150000    0.150000    0.150000
    0.125000    0.125000    0.125000
    0.100000    0.100000    0.100000
    0.075000    0.075000    0.075000
    0.050000    0.050000    0.050000
    0.025000    0.025000    0.025000
    0.000000    0.000000    0.000000
    0.021739    0.000000    0.021739
    0.043478    0.000000    0.043478
    0.065217    0.000000    0.065217
    0.086957    0.000000    0.086957
    0.108696    0.000000    0.108696
    0.130435    0.000000    0.130435
    0.152174    0.000000    0.152174
    0.173913    0.000000    0.173913
    0.195652    0.000000    0.195652
    0.217391    0.000000    0.217391
    0.239130    0.000000    0.239130
    0.260870    0.000000    0.260870
    0.282609    0.000000    0.282609
    0.304348    0.000000    0.304348
    0.326087    0.000000    0.326087
    0.347826    0.000000    0.347826
    0.369565    0.000000    0.369565
    0.391304    0.000000    0.391304
    0.413043    0.000000    0.413043
    0.434783    0.000000    0.434783
    0.456522    0.000000    0.456522
    0.478261    0.000000    0.478261
    0.500000    0.000000    0.500000
    0.500000   -0.500000    0.000000
    0.484375   -0.484375    0.000000
    0.468750   -0.468750    0.000000
    0.453125   -0.453125    0.000000
    0.437500   -0.437500    0.000000
    0.421875   -0.421875    0.000000
    0.406250   -0.406250    0.000000
    0.390625   -0.390625    0.000000
    0.375000   -0.375000    0.000000
    0.359375   -0.359375    0.000000
    0.343750   -0.343750    0.000000
    0.328125   -0.328125    0.000000
    0.312500   -0.312500    0.000000
    0.296875   -0.296875    0.000000
    0.281250   -0.281250    0.000000
    0.265625   -0.265625    0.000000
    0.250000   -0.250000    0.000000
    0.234375   -0.234375    0.000000
    0.218750   -0.218750    0.000000
    0.203125   -0.203125    0.000000
    0.187500   -0.187500    0.000000
    0.171875   -0.171875    0.000000
    0.156250   -0.156250    0.000000
    0.140625   -0.140625    0.000000
    0.125000   -0.125000    0.000000
    0.109375   -0.109375    0.000000
    0.093750   -0.093750    0.000000
    0.078125   -0.078125    0.000000
    0.062500   -0.062500    0.000000
    0.046875   -0.046875    0.000000
    0.031250   -0.031250    0.000000
    0.015625   -0.015625    0.000000
    0.000000    0.000000    0.000000
%endblock BandPoints
