
SystemName      bulk Cu
SystemLabel     cu

SaveTotalPotential T

NumberOfSpecies      1
NumberOfAtoms	     1
%block ChemicalSpeciesLabel
    1    29    Cu
%endblock ChemicalSpeciesLabel

PAO.BasisSize DZDP

xc.functional  GGA
xc.authors     PBE

LatticeConstant  7.2 Bohr
%block LatticeVectors
  -0.500000   0.000000   0.500000
   0.000000   0.500000   0.500000
  -0.500000   0.500000   0.000000
%endblock LatticeVectors

AtomicCoordinatesFormat	     ScaledCartesian
%block AtomicCoordinatesAndAtomicSpecies
        0.000000        0.00000        0.000000        1
%endblock AtomicCoordinatesAndAtomicSpecies

%block kgrid_Monkhorst_Pack
  4   0   0    0.
  0   4   0    0.
  0   0   4    0.
%endblock kgrid_Monkhorst_Pack

MeshCutoff             600  Ry

DM.UseSaveDM true
DM.NumberPulay         3
DM.MixingWeight        0.3

#BandLinesScale ReciprocalLatticeVectors
#%block BandPoints
#    0.0000000000     0.0000000000     0.0000000000
#    0.0078125000     0.0000000000     0.0078125000
#    0.0156250000     0.0000000000     0.0156250000
#    0.0234375000     0.0000000000     0.0234375000
#    0.0312500000     0.0000000000     0.0312500000
#    0.0390625000     0.0000000000     0.0390625000
#    0.0468750000     0.0000000000     0.0468750000
#    0.0546875000     0.0000000000     0.0546875000
#    0.0625000000     0.0000000000     0.0625000000
#    0.0703125000     0.0000000000     0.0703125000
#    0.0781250000     0.0000000000     0.0781250000
#    0.0859375000     0.0000000000     0.0859375000
#    0.0937500000     0.0000000000     0.0937500000
#    0.1015625000     0.0000000000     0.1015625000
#    0.1093750000     0.0000000000     0.1093750000
#    0.1171875000     0.0000000000     0.1171875000
#    0.1250000000     0.0000000000     0.1250000000
#    0.1328125000     0.0000000000     0.1328125000
#    0.1406250000     0.0000000000     0.1406250000
#    0.1484375000     0.0000000000     0.1484375000
#    0.1562500000     0.0000000000     0.1562500000
#    0.1640625000     0.0000000000     0.1640625000
#    0.1718750000     0.0000000000     0.1718750000
#    0.1796875000     0.0000000000     0.1796875000
#    0.1875000000     0.0000000000     0.1875000000
#    0.1953125000     0.0000000000     0.1953125000
#    0.2031250000     0.0000000000     0.2031250000
#    0.2109375000     0.0000000000     0.2109375000
#    0.2187500000     0.0000000000     0.2187500000
#    0.2265625000     0.0000000000     0.2265625000
#    0.2343750000     0.0000000000     0.2343750000
#    0.2421875000     0.0000000000     0.2421875000
#    0.2500000000     0.0000000000     0.2500000000
#    0.2578125000     0.0000000000     0.2578125000
#    0.2656250000     0.0000000000     0.2656250000
#    0.2734375000     0.0000000000     0.2734375000
#    0.2812500000     0.0000000000     0.2812500000
#    0.2890625000     0.0000000000     0.2890625000
#    0.2968750000     0.0000000000     0.2968750000
#    0.3046875000     0.0000000000     0.3046875000
#    0.3125000000     0.0000000000     0.3125000000
#    0.3203125000     0.0000000000     0.3203125000
#    0.3281250000     0.0000000000     0.3281250000
#    0.3359375000     0.0000000000     0.3359375000
#    0.3437500000     0.0000000000     0.3437500000
#    0.3515625000     0.0000000000     0.3515625000
#    0.3593750000     0.0000000000     0.3593750000
#    0.3671875000     0.0000000000     0.3671875000
#    0.3750000000     0.0000000000     0.3750000000
#    0.3828125000     0.0000000000     0.3828125000
#    0.3906250000     0.0000000000     0.3906250000
#    0.3984375000     0.0000000000     0.3984375000
#    0.4062500000     0.0000000000     0.4062500000
#    0.4140625000     0.0000000000     0.4140625000
#    0.4218750000     0.0000000000     0.4218750000
#    0.4296875000     0.0000000000     0.4296875000
#    0.4375000000     0.0000000000     0.4375000000
#    0.4453125000     0.0000000000     0.4453125000
#    0.4531250000     0.0000000000     0.4531250000
#    0.4609375000     0.0000000000     0.4609375000
#    0.4687500000     0.0000000000     0.4687500000
#    0.4765625000     0.0000000000     0.4765625000
#    0.4843750000     0.0000000000     0.4843750000
#    0.4921875000     0.0000000000     0.4921875000
#    0.5000000000     0.0000000000     0.5000000000
#    0.5056818182     0.0113636364     0.5056818182
#    0.5113636364     0.0227272727     0.5113636364
#    0.5170454545     0.0340909091     0.5170454545
#    0.5227272727     0.0454545455     0.5227272727
#    0.5284090909     0.0568181818     0.5284090909
#    0.5340909091     0.0681818182     0.5340909091
#    0.5397727273     0.0795454545     0.5397727273
#    0.5454545455     0.0909090909     0.5454545455
#    0.5511363636     0.1022727273     0.5511363636
#    0.5568181818     0.1136363636     0.5568181818
#    0.5625000000     0.1250000000     0.5625000000
#    0.5681818182     0.1363636364     0.5681818182
#    0.5738636364     0.1477272727     0.5738636364
#    0.5795454545     0.1590909091     0.5795454545
#    0.5852272727     0.1704545455     0.5852272727
#    0.5909090909     0.1818181818     0.5909090909
#    0.5965909091     0.1931818182     0.5965909091
#    0.6022727273     0.2045454545     0.6022727273
#    0.6079545455     0.2159090909     0.6079545455
#    0.6136363636     0.2272727273     0.6136363636
#    0.6193181818     0.2386363636     0.6193181818
#    0.6250000000     0.2500000000     0.6250000000
#    0.3750000000     0.3750000000     0.7500000000
#    0.3694852941     0.3694852941     0.7389705882
#    0.3639705882     0.3639705882     0.7279411765
#    0.3584558824     0.3584558824     0.7169117647
#    0.3529411765     0.3529411765     0.7058823529
#    0.3474264706     0.3474264706     0.6948529412
#    0.3419117647     0.3419117647     0.6838235294
#    0.3363970588     0.3363970588     0.6727941176
#    0.3308823529     0.3308823529     0.6617647059
#    0.3253676471     0.3253676471     0.6507352941
#    0.3198529412     0.3198529412     0.6397058824
#    0.3143382353     0.3143382353     0.6286764706
#    0.3088235294     0.3088235294     0.6176470588
#    0.3033088235     0.3033088235     0.6066176471
#    0.2977941176     0.2977941176     0.5955882353
#    0.2922794118     0.2922794118     0.5845588235
#    0.2867647059     0.2867647059     0.5735294118
#    0.2812500000     0.2812500000     0.5625000000
#    0.2757352941     0.2757352941     0.5514705882
#    0.2702205882     0.2702205882     0.5404411765
#    0.2647058824     0.2647058824     0.5294117647
#    0.2591911765     0.2591911765     0.5183823529
#    0.2536764706     0.2536764706     0.5073529412
#    0.2481617647     0.2481617647     0.4963235294
#    0.2426470588     0.2426470588     0.4852941176
#    0.2371323529     0.2371323529     0.4742647059
#    0.2316176471     0.2316176471     0.4632352941
#    0.2261029412     0.2261029412     0.4522058824
#    0.2205882353     0.2205882353     0.4411764706
#    0.2150735294     0.2150735294     0.4301470588
#    0.2095588235     0.2095588235     0.4191176471
#    0.2040441176     0.2040441176     0.4080882353
#    0.1985294118     0.1985294118     0.3970588235
#    0.1930147059     0.1930147059     0.3860294118
#    0.1875000000     0.1875000000     0.3750000000
#    0.1819852941     0.1819852941     0.3639705882
#    0.1764705882     0.1764705882     0.3529411765
#    0.1709558824     0.1709558824     0.3419117647
#    0.1654411765     0.1654411765     0.3308823529
#    0.1599264706     0.1599264706     0.3198529412
#    0.1544117647     0.1544117647     0.3088235294
#    0.1488970588     0.1488970588     0.2977941176
#    0.1433823529     0.1433823529     0.2867647059
#    0.1378676471     0.1378676471     0.2757352941
#    0.1323529412     0.1323529412     0.2647058824
#    0.1268382353     0.1268382353     0.2536764706
#    0.1213235294     0.1213235294     0.2426470588
#    0.1158088235     0.1158088235     0.2316176471
#    0.1102941176     0.1102941176     0.2205882353
#    0.1047794118     0.1047794118     0.2095588235
#    0.0992647059     0.0992647059     0.1985294118
#    0.0937500000     0.0937500000     0.1875000000
#    0.0882352941     0.0882352941     0.1764705882
#    0.0827205882     0.0827205882     0.1654411765
#    0.0772058824     0.0772058824     0.1544117647
#    0.0716911765     0.0716911765     0.1433823529
#    0.0661764706     0.0661764706     0.1323529412
#    0.0606617647     0.0606617647     0.1213235294
#    0.0551470588     0.0551470588     0.1102941176
#    0.0496323529     0.0496323529     0.0992647059
#    0.0441176471     0.0441176471     0.0882352941
#    0.0386029412     0.0386029412     0.0772058824
#    0.0330882353     0.0330882353     0.0661764706
#    0.0275735294     0.0275735294     0.0551470588
#    0.0220588235     0.0220588235     0.0441176471
#    0.0165441176     0.0165441176     0.0330882353
#    0.0110294118     0.0110294118     0.0220588235
#    0.0055147059     0.0055147059     0.0110294118
#    0.0000000000     0.0000000000     0.0000000000
#    0.0089285714     0.0089285714     0.0089285714
#    0.0178571429     0.0178571429     0.0178571429
#    0.0267857143     0.0267857143     0.0267857143
#    0.0357142857     0.0357142857     0.0357142857
#    0.0446428571     0.0446428571     0.0446428571
#    0.0535714286     0.0535714286     0.0535714286
#    0.0625000000     0.0625000000     0.0625000000
#    0.0714285714     0.0714285714     0.0714285714
#    0.0803571429     0.0803571429     0.0803571429
#    0.0892857143     0.0892857143     0.0892857143
#    0.0982142857     0.0982142857     0.0982142857
#    0.1071428571     0.1071428571     0.1071428571
#    0.1160714286     0.1160714286     0.1160714286
#    0.1250000000     0.1250000000     0.1250000000
#    0.1339285714     0.1339285714     0.1339285714
#    0.1428571429     0.1428571429     0.1428571429
#    0.1517857143     0.1517857143     0.1517857143
#    0.1607142857     0.1607142857     0.1607142857
#    0.1696428571     0.1696428571     0.1696428571
#    0.1785714286     0.1785714286     0.1785714286
#    0.1875000000     0.1875000000     0.1875000000
#    0.1964285714     0.1964285714     0.1964285714
#    0.2053571429     0.2053571429     0.2053571429
#    0.2142857143     0.2142857143     0.2142857143
#    0.2232142857     0.2232142857     0.2232142857
#    0.2321428571     0.2321428571     0.2321428571
#    0.2410714286     0.2410714286     0.2410714286
#    0.2500000000     0.2500000000     0.2500000000
#    0.2589285714     0.2589285714     0.2589285714
#    0.2678571429     0.2678571429     0.2678571429
#    0.2767857143     0.2767857143     0.2767857143
#    0.2857142857     0.2857142857     0.2857142857
#    0.2946428571     0.2946428571     0.2946428571
#    0.3035714286     0.3035714286     0.3035714286
#    0.3125000000     0.3125000000     0.3125000000
#    0.3214285714     0.3214285714     0.3214285714
#    0.3303571429     0.3303571429     0.3303571429
#    0.3392857143     0.3392857143     0.3392857143
#    0.3482142857     0.3482142857     0.3482142857
#    0.3571428571     0.3571428571     0.3571428571
#    0.3660714286     0.3660714286     0.3660714286
#    0.3750000000     0.3750000000     0.3750000000
#    0.3839285714     0.3839285714     0.3839285714
#    0.3928571429     0.3928571429     0.3928571429
#    0.4017857143     0.4017857143     0.4017857143
#    0.4107142857     0.4107142857     0.4107142857
#    0.4196428571     0.4196428571     0.4196428571
#    0.4285714286     0.4285714286     0.4285714286
#    0.4375000000     0.4375000000     0.4375000000
#    0.4464285714     0.4464285714     0.4464285714
#    0.4553571429     0.4553571429     0.4553571429
#    0.4642857143     0.4642857143     0.4642857143
#    0.4732142857     0.4732142857     0.4732142857
#    0.4821428571     0.4821428571     0.4821428571
#    0.4910714286     0.4910714286     0.4910714286
#    0.5000000000     0.5000000000     0.5000000000
#    0.5000000000     0.4944444444     0.5055555556
#    0.5000000000     0.4888888889     0.5111111111
#    0.5000000000     0.4833333333     0.5166666667
#    0.5000000000     0.4777777778     0.5222222222
#    0.5000000000     0.4722222222     0.5277777778
#    0.5000000000     0.4666666667     0.5333333333
#    0.5000000000     0.4611111111     0.5388888889
#    0.5000000000     0.4555555556     0.5444444444
#    0.5000000000     0.4500000000     0.5500000000
#    0.5000000000     0.4444444444     0.5555555556
#    0.5000000000     0.4388888889     0.5611111111
#    0.5000000000     0.4333333333     0.5666666667
#    0.5000000000     0.4277777778     0.5722222222
#    0.5000000000     0.4222222222     0.5777777778
#    0.5000000000     0.4166666667     0.5833333333
#    0.5000000000     0.4111111111     0.5888888889
#    0.5000000000     0.4055555556     0.5944444444
#    0.5000000000     0.4000000000     0.6000000000
#    0.5000000000     0.3944444444     0.6055555556
#    0.5000000000     0.3888888889     0.6111111111
#    0.5000000000     0.3833333333     0.6166666667
#    0.5000000000     0.3777777778     0.6222222222
#    0.5000000000     0.3722222222     0.6277777778
#    0.5000000000     0.3666666667     0.6333333333
#    0.5000000000     0.3611111111     0.6388888889
#    0.5000000000     0.3555555556     0.6444444444
#    0.5000000000     0.3500000000     0.6500000000
#    0.5000000000     0.3444444444     0.6555555556
#    0.5000000000     0.3388888889     0.6611111111
#    0.5000000000     0.3333333333     0.6666666667
#    0.5000000000     0.3277777778     0.6722222222
#    0.5000000000     0.3222222222     0.6777777778
#    0.5000000000     0.3166666667     0.6833333333
#    0.5000000000     0.3111111111     0.6888888889
#    0.5000000000     0.3055555556     0.6944444444
#    0.5000000000     0.3000000000     0.7000000000
#    0.5000000000     0.2944444444     0.7055555556
#    0.5000000000     0.2888888889     0.7111111111
#    0.5000000000     0.2833333333     0.7166666667
#    0.5000000000     0.2777777778     0.7222222222
#    0.5000000000     0.2722222222     0.7277777778
#    0.5000000000     0.2666666667     0.7333333333
#    0.5000000000     0.2611111111     0.7388888889
#    0.5000000000     0.2555555556     0.7444444444
#    0.5000000000     0.2500000000     0.7500000000
#    0.5000000000     0.2419354839     0.7419354839
#    0.5000000000     0.2338709677     0.7338709677
#    0.5000000000     0.2258064516     0.7258064516
#    0.5000000000     0.2177419355     0.7177419355
#    0.5000000000     0.2096774194     0.7096774194
#    0.5000000000     0.2016129032     0.7016129032
#    0.5000000000     0.1935483871     0.6935483871
#    0.5000000000     0.1854838710     0.6854838710
#    0.5000000000     0.1774193548     0.6774193548
#    0.5000000000     0.1693548387     0.6693548387
#    0.5000000000     0.1612903226     0.6612903226
#    0.5000000000     0.1532258065     0.6532258065
#    0.5000000000     0.1451612903     0.6451612903
#    0.5000000000     0.1370967742     0.6370967742
#    0.5000000000     0.1290322581     0.6290322581
#    0.5000000000     0.1209677419     0.6209677419
#    0.5000000000     0.1129032258     0.6129032258
#    0.5000000000     0.1048387097     0.6048387097
#    0.5000000000     0.0967741935     0.5967741935
#    0.5000000000     0.0887096774     0.5887096774
#    0.5000000000     0.0806451613     0.5806451613
#    0.5000000000     0.0725806452     0.5725806452
#    0.5000000000     0.0645161290     0.5645161290
#    0.5000000000     0.0564516129     0.5564516129
#    0.5000000000     0.0483870968     0.5483870968
#    0.5000000000     0.0403225806     0.5403225806
#    0.5000000000     0.0322580645     0.5322580645
#    0.5000000000     0.0241935484     0.5241935484
#    0.5000000000     0.0161290323     0.5161290323
#    0.5000000000     0.0080645161     0.5080645161
#    0.5000000000     0.0000000000     0.5000000000
#%endblock BandPoints
