&control
    calculation = 'scf'
    tprnfor = .true.
    tstress = .true.
    prefix = 'fe-o'
    pseudo_dir = './'
    outdir = './'
    verbosity = 'high'
    wf_collect = .true.
 /
 &system
    ibrav = 1
    celldm(1) = 20.0
    nat = 2
    ntyp = 2
    ecutwfc = 150.0
    occupations = 'smearing'
    smearing = 'methfessel-paxton'
    degauss = 0.02
    la2F = .true.
    nbnd = 15
 /
 &electrons
    conv_thr = 1.0d-12
    mixing_beta = 0.5
 /
 &IONS
 /
 &CELL
 /
ATOMIC_SPECIES
 Fe 55.845 Fe.pbe-sp-mt_gipaw.UPF
 O  15.999 O.pbe-mt_fhi.UPF
ATOMIC_POSITIONS (alat)
 Fe       0.500000000   0.500000000   0.477489195
 O        0.500000000   0.500000000   0.622510814
K_POINTS {automatic}
1 1 1 0 0 0
