&input
 fildyn='fe-o.dyn',
 zasr='simple',
 flfrc='fe-o.fc'

 /
