&input
    mesh_dir = './'
    prefix = 'cu'
    nk1 = 4
    nk2 = 4
    nk3 = 4
    TR_symmetry = .false.
    use_exclude_bands = "all"
/
&intw2W
/
&ph
    nq1 = 1
    nq2 = 1
    nq3 = 1
    nqirr = 1
/
&DOS
/
&DOS_ph
/
&elphon
/
