proba
&inputpp
 outdir="./"
 prefix = "si",
 ph_dir = "./",
 phonons = .true.,
 nqirr = 1,
 dynxml = .false.,
 fildvscf = "dvscf"
 fildyn = "si.dyn"
/

