&input
    outdir = './'
    prefix = 'si'
    nk1 = 8
    nk2 = 8
    nk3 = 8
    TR_symmetry = .true.
    use_exclude_bands = "wannier"
/

&intw2W
    intw2W_fullzone = .false.
    intw2W_method = 'CONVOLUTION'
/

&ph
/
&DOS
/
&DOS_ph
/
&elphon
/
