&input
 fildyn='cu.dyn',
 zasr='simple',
 flfrc='cu.fc'
 /
