&inputpp
 prefix = "gaas",
 phonons = .true.,
 phdir = "./",
 nqirr = 3,
 dynxml = .false.,
 fildvscf = "dvscf"
 fildyn = "gaas.dyn"
/

