&input
    outdir = './'
    prefix = 'gaas'
    nk1 = 4
    nk2 = 4
    nk3 = 4
    TR_symmetry = .true.
    use_exclude_bands = "all"
/
&intw2W
/
&ph
    nq1 = 2
    nq2 = 2
    nq3 = 2
    nqirr = 3
/
&DOS
/
&DOS_ph
/
&elphon
/
