&inputpp
 prefix = "si",
 phonons = .true.,
 phdir = "./",
 nqirr = 3,
 dynxml = .false.,
 fildvscf = "dvscf"
 fildyn = "si.dyn"
/

