phonons for MgB2
 &inputph
  tr2_ph = 1.0d-16
  prefix = 'mgb2'
  fildvscf = 'dvscf'
  outdir = './'
  fildyn = 'mgb2.dyn'
  trans = .true.
  verbosity = 'high'
 /
   0.333333333   0.577350269   0.000000000
