&inputpp
 prefix = "cu-nscf"
 phonons = .false.
/

