&inputpp
 prefix = "cu",
 phonons = .true.,
 phdir = "./",
 nqirr = 3,
 dynxml = .false.,
 fildvscf = "dvscf"
 fildyn = "cu.dyn"
/

