proba
&inputpp
 prefix = "cu",
 ph_dir = "./",
 phonons = .true.,
 nqirr = 3,
 dynxml = .false.,
 fildvscf = "dvscf"
 fildyn = "cu.dyn"
/

