&input
    mesh_dir = './'
    prefix = 'gaas'
    nk1 = 4
    nk2 = 4
    nk3 = 4
    TR_symmetry = .true.
    nk1s = 4
    nk2s = 4
    nk3s = 4
    number_G_shells = 4
/

&intw2W
/

&ph
    nq1 = 1
    nq2 = 1
    nq3 = 1
    nqirr = 1
/
