&inputpp
 prefix = "gaas-nscf"
 phonons = .false.
/

