proba
&inputpp
 prefix = "cu",
 ph_dir = "./",
 phonons = .true.,
 nqirr = 1,
 dynxml = .false.,
/

