phonons for Si
 &inputph
  tr2_ph = 1.0d-12
  prefix = 'si'
  fildvscf = 'dvscf'
  outdir = './'
  fildyn = 'si.dyn'
  trans = .true.
  verbosity = 'high'
 /
0.0  0.0  0.0
