num_bands         =   4
num_wann          =   4

num_iter          = 1000
num_print_cycles  = 10

Begin Atoms_Frac
Si   0.00   0.00   0.00
Si   0.25   0.25   0.25
End Atoms_Frac

Begin Projections
!! !! Atom-centered sp3-orbitals
!!Si:sp3
! Bond-centered, taken from GaAs example21
f= 0.125, 0.125, 0.125: s
f= 0.125, 0.125, -.375: s
f= -.375, 0.125, 0.125: s
f= 0.125, -.375, 0.125: s
End Projections

!wannier_plot=.true. 
!wannier_plot_format=cube

bands_plot=.true.
bands_num_points=20

begin kpoint_path
L 0.50000  0.50000 0.5000 G 0.00000  0.00000 0.0000
G 0.00000  0.00000 0.0000 X 0.50000  0.00000 0.5000
X 0.50000 -0.50000 0.0000 K 0.37500 -0.37500 0.0000
K 0.37500 -0.37500 0.0000 G 0.00000  0.00000 0.0000
end kpoint_path

Begin Unit_Cell_Cart
Bohr
-5.101693 0.000000 5.101693
 0.000000 5.101693 5.101693
-5.101693 5.101693 0.000000
End Unit_Cell_Cart

mp_grid      = 8 8 8

begin kpoints
  0.00000000  0.00000000  0.00000000
  0.00000000  0.00000000  0.12500000
  0.00000000  0.00000000  0.25000000
  0.00000000  0.00000000  0.37500000
  0.00000000  0.00000000  0.50000000
  0.00000000  0.00000000  0.62500000
  0.00000000  0.00000000  0.75000000
  0.00000000  0.00000000  0.87500000
  0.00000000  0.12500000  0.00000000
  0.00000000  0.12500000  0.12500000
  0.00000000  0.12500000  0.25000000
  0.00000000  0.12500000  0.37500000
  0.00000000  0.12500000  0.50000000
  0.00000000  0.12500000  0.62500000
  0.00000000  0.12500000  0.75000000
  0.00000000  0.12500000  0.87500000
  0.00000000  0.25000000  0.00000000
  0.00000000  0.25000000  0.12500000
  0.00000000  0.25000000  0.25000000
  0.00000000  0.25000000  0.37500000
  0.00000000  0.25000000  0.50000000
  0.00000000  0.25000000  0.62500000
  0.00000000  0.25000000  0.75000000
  0.00000000  0.25000000  0.87500000
  0.00000000  0.37500000  0.00000000
  0.00000000  0.37500000  0.12500000
  0.00000000  0.37500000  0.25000000
  0.00000000  0.37500000  0.37500000
  0.00000000  0.37500000  0.50000000
  0.00000000  0.37500000  0.62500000
  0.00000000  0.37500000  0.75000000
  0.00000000  0.37500000  0.87500000
  0.00000000  0.50000000  0.00000000
  0.00000000  0.50000000  0.12500000
  0.00000000  0.50000000  0.25000000
  0.00000000  0.50000000  0.37500000
  0.00000000  0.50000000  0.50000000
  0.00000000  0.50000000  0.62500000
  0.00000000  0.50000000  0.75000000
  0.00000000  0.50000000  0.87500000
  0.00000000  0.62500000  0.00000000
  0.00000000  0.62500000  0.12500000
  0.00000000  0.62500000  0.25000000
  0.00000000  0.62500000  0.37500000
  0.00000000  0.62500000  0.50000000
  0.00000000  0.62500000  0.62500000
  0.00000000  0.62500000  0.75000000
  0.00000000  0.62500000  0.87500000
  0.00000000  0.75000000  0.00000000
  0.00000000  0.75000000  0.12500000
  0.00000000  0.75000000  0.25000000
  0.00000000  0.75000000  0.37500000
  0.00000000  0.75000000  0.50000000
  0.00000000  0.75000000  0.62500000
  0.00000000  0.75000000  0.75000000
  0.00000000  0.75000000  0.87500000
  0.00000000  0.87500000  0.00000000
  0.00000000  0.87500000  0.12500000
  0.00000000  0.87500000  0.25000000
  0.00000000  0.87500000  0.37500000
  0.00000000  0.87500000  0.50000000
  0.00000000  0.87500000  0.62500000
  0.00000000  0.87500000  0.75000000
  0.00000000  0.87500000  0.87500000
  0.12500000  0.00000000  0.00000000
  0.12500000  0.00000000  0.12500000
  0.12500000  0.00000000  0.25000000
  0.12500000  0.00000000  0.37500000
  0.12500000  0.00000000  0.50000000
  0.12500000  0.00000000  0.62500000
  0.12500000  0.00000000  0.75000000
  0.12500000  0.00000000  0.87500000
  0.12500000  0.12500000  0.00000000
  0.12500000  0.12500000  0.12500000
  0.12500000  0.12500000  0.25000000
  0.12500000  0.12500000  0.37500000
  0.12500000  0.12500000  0.50000000
  0.12500000  0.12500000  0.62500000
  0.12500000  0.12500000  0.75000000
  0.12500000  0.12500000  0.87500000
  0.12500000  0.25000000  0.00000000
  0.12500000  0.25000000  0.12500000
  0.12500000  0.25000000  0.25000000
  0.12500000  0.25000000  0.37500000
  0.12500000  0.25000000  0.50000000
  0.12500000  0.25000000  0.62500000
  0.12500000  0.25000000  0.75000000
  0.12500000  0.25000000  0.87500000
  0.12500000  0.37500000  0.00000000
  0.12500000  0.37500000  0.12500000
  0.12500000  0.37500000  0.25000000
  0.12500000  0.37500000  0.37500000
  0.12500000  0.37500000  0.50000000
  0.12500000  0.37500000  0.62500000
  0.12500000  0.37500000  0.75000000
  0.12500000  0.37500000  0.87500000
  0.12500000  0.50000000  0.00000000
  0.12500000  0.50000000  0.12500000
  0.12500000  0.50000000  0.25000000
  0.12500000  0.50000000  0.37500000
  0.12500000  0.50000000  0.50000000
  0.12500000  0.50000000  0.62500000
  0.12500000  0.50000000  0.75000000
  0.12500000  0.50000000  0.87500000
  0.12500000  0.62500000  0.00000000
  0.12500000  0.62500000  0.12500000
  0.12500000  0.62500000  0.25000000
  0.12500000  0.62500000  0.37500000
  0.12500000  0.62500000  0.50000000
  0.12500000  0.62500000  0.62500000
  0.12500000  0.62500000  0.75000000
  0.12500000  0.62500000  0.87500000
  0.12500000  0.75000000  0.00000000
  0.12500000  0.75000000  0.12500000
  0.12500000  0.75000000  0.25000000
  0.12500000  0.75000000  0.37500000
  0.12500000  0.75000000  0.50000000
  0.12500000  0.75000000  0.62500000
  0.12500000  0.75000000  0.75000000
  0.12500000  0.75000000  0.87500000
  0.12500000  0.87500000  0.00000000
  0.12500000  0.87500000  0.12500000
  0.12500000  0.87500000  0.25000000
  0.12500000  0.87500000  0.37500000
  0.12500000  0.87500000  0.50000000
  0.12500000  0.87500000  0.62500000
  0.12500000  0.87500000  0.75000000
  0.12500000  0.87500000  0.87500000
  0.25000000  0.00000000  0.00000000
  0.25000000  0.00000000  0.12500000
  0.25000000  0.00000000  0.25000000
  0.25000000  0.00000000  0.37500000
  0.25000000  0.00000000  0.50000000
  0.25000000  0.00000000  0.62500000
  0.25000000  0.00000000  0.75000000
  0.25000000  0.00000000  0.87500000
  0.25000000  0.12500000  0.00000000
  0.25000000  0.12500000  0.12500000
  0.25000000  0.12500000  0.25000000
  0.25000000  0.12500000  0.37500000
  0.25000000  0.12500000  0.50000000
  0.25000000  0.12500000  0.62500000
  0.25000000  0.12500000  0.75000000
  0.25000000  0.12500000  0.87500000
  0.25000000  0.25000000  0.00000000
  0.25000000  0.25000000  0.12500000
  0.25000000  0.25000000  0.25000000
  0.25000000  0.25000000  0.37500000
  0.25000000  0.25000000  0.50000000
  0.25000000  0.25000000  0.62500000
  0.25000000  0.25000000  0.75000000
  0.25000000  0.25000000  0.87500000
  0.25000000  0.37500000  0.00000000
  0.25000000  0.37500000  0.12500000
  0.25000000  0.37500000  0.25000000
  0.25000000  0.37500000  0.37500000
  0.25000000  0.37500000  0.50000000
  0.25000000  0.37500000  0.62500000
  0.25000000  0.37500000  0.75000000
  0.25000000  0.37500000  0.87500000
  0.25000000  0.50000000  0.00000000
  0.25000000  0.50000000  0.12500000
  0.25000000  0.50000000  0.25000000
  0.25000000  0.50000000  0.37500000
  0.25000000  0.50000000  0.50000000
  0.25000000  0.50000000  0.62500000
  0.25000000  0.50000000  0.75000000
  0.25000000  0.50000000  0.87500000
  0.25000000  0.62500000  0.00000000
  0.25000000  0.62500000  0.12500000
  0.25000000  0.62500000  0.25000000
  0.25000000  0.62500000  0.37500000
  0.25000000  0.62500000  0.50000000
  0.25000000  0.62500000  0.62500000
  0.25000000  0.62500000  0.75000000
  0.25000000  0.62500000  0.87500000
  0.25000000  0.75000000  0.00000000
  0.25000000  0.75000000  0.12500000
  0.25000000  0.75000000  0.25000000
  0.25000000  0.75000000  0.37500000
  0.25000000  0.75000000  0.50000000
  0.25000000  0.75000000  0.62500000
  0.25000000  0.75000000  0.75000000
  0.25000000  0.75000000  0.87500000
  0.25000000  0.87500000  0.00000000
  0.25000000  0.87500000  0.12500000
  0.25000000  0.87500000  0.25000000
  0.25000000  0.87500000  0.37500000
  0.25000000  0.87500000  0.50000000
  0.25000000  0.87500000  0.62500000
  0.25000000  0.87500000  0.75000000
  0.25000000  0.87500000  0.87500000
  0.37500000  0.00000000  0.00000000
  0.37500000  0.00000000  0.12500000
  0.37500000  0.00000000  0.25000000
  0.37500000  0.00000000  0.37500000
  0.37500000  0.00000000  0.50000000
  0.37500000  0.00000000  0.62500000
  0.37500000  0.00000000  0.75000000
  0.37500000  0.00000000  0.87500000
  0.37500000  0.12500000  0.00000000
  0.37500000  0.12500000  0.12500000
  0.37500000  0.12500000  0.25000000
  0.37500000  0.12500000  0.37500000
  0.37500000  0.12500000  0.50000000
  0.37500000  0.12500000  0.62500000
  0.37500000  0.12500000  0.75000000
  0.37500000  0.12500000  0.87500000
  0.37500000  0.25000000  0.00000000
  0.37500000  0.25000000  0.12500000
  0.37500000  0.25000000  0.25000000
  0.37500000  0.25000000  0.37500000
  0.37500000  0.25000000  0.50000000
  0.37500000  0.25000000  0.62500000
  0.37500000  0.25000000  0.75000000
  0.37500000  0.25000000  0.87500000
  0.37500000  0.37500000  0.00000000
  0.37500000  0.37500000  0.12500000
  0.37500000  0.37500000  0.25000000
  0.37500000  0.37500000  0.37500000
  0.37500000  0.37500000  0.50000000
  0.37500000  0.37500000  0.62500000
  0.37500000  0.37500000  0.75000000
  0.37500000  0.37500000  0.87500000
  0.37500000  0.50000000  0.00000000
  0.37500000  0.50000000  0.12500000
  0.37500000  0.50000000  0.25000000
  0.37500000  0.50000000  0.37500000
  0.37500000  0.50000000  0.50000000
  0.37500000  0.50000000  0.62500000
  0.37500000  0.50000000  0.75000000
  0.37500000  0.50000000  0.87500000
  0.37500000  0.62500000  0.00000000
  0.37500000  0.62500000  0.12500000
  0.37500000  0.62500000  0.25000000
  0.37500000  0.62500000  0.37500000
  0.37500000  0.62500000  0.50000000
  0.37500000  0.62500000  0.62500000
  0.37500000  0.62500000  0.75000000
  0.37500000  0.62500000  0.87500000
  0.37500000  0.75000000  0.00000000
  0.37500000  0.75000000  0.12500000
  0.37500000  0.75000000  0.25000000
  0.37500000  0.75000000  0.37500000
  0.37500000  0.75000000  0.50000000
  0.37500000  0.75000000  0.62500000
  0.37500000  0.75000000  0.75000000
  0.37500000  0.75000000  0.87500000
  0.37500000  0.87500000  0.00000000
  0.37500000  0.87500000  0.12500000
  0.37500000  0.87500000  0.25000000
  0.37500000  0.87500000  0.37500000
  0.37500000  0.87500000  0.50000000
  0.37500000  0.87500000  0.62500000
  0.37500000  0.87500000  0.75000000
  0.37500000  0.87500000  0.87500000
  0.50000000  0.00000000  0.00000000
  0.50000000  0.00000000  0.12500000
  0.50000000  0.00000000  0.25000000
  0.50000000  0.00000000  0.37500000
  0.50000000  0.00000000  0.50000000
  0.50000000  0.00000000  0.62500000
  0.50000000  0.00000000  0.75000000
  0.50000000  0.00000000  0.87500000
  0.50000000  0.12500000  0.00000000
  0.50000000  0.12500000  0.12500000
  0.50000000  0.12500000  0.25000000
  0.50000000  0.12500000  0.37500000
  0.50000000  0.12500000  0.50000000
  0.50000000  0.12500000  0.62500000
  0.50000000  0.12500000  0.75000000
  0.50000000  0.12500000  0.87500000
  0.50000000  0.25000000  0.00000000
  0.50000000  0.25000000  0.12500000
  0.50000000  0.25000000  0.25000000
  0.50000000  0.25000000  0.37500000
  0.50000000  0.25000000  0.50000000
  0.50000000  0.25000000  0.62500000
  0.50000000  0.25000000  0.75000000
  0.50000000  0.25000000  0.87500000
  0.50000000  0.37500000  0.00000000
  0.50000000  0.37500000  0.12500000
  0.50000000  0.37500000  0.25000000
  0.50000000  0.37500000  0.37500000
  0.50000000  0.37500000  0.50000000
  0.50000000  0.37500000  0.62500000
  0.50000000  0.37500000  0.75000000
  0.50000000  0.37500000  0.87500000
  0.50000000  0.50000000  0.00000000
  0.50000000  0.50000000  0.12500000
  0.50000000  0.50000000  0.25000000
  0.50000000  0.50000000  0.37500000
  0.50000000  0.50000000  0.50000000
  0.50000000  0.50000000  0.62500000
  0.50000000  0.50000000  0.75000000
  0.50000000  0.50000000  0.87500000
  0.50000000  0.62500000  0.00000000
  0.50000000  0.62500000  0.12500000
  0.50000000  0.62500000  0.25000000
  0.50000000  0.62500000  0.37500000
  0.50000000  0.62500000  0.50000000
  0.50000000  0.62500000  0.62500000
  0.50000000  0.62500000  0.75000000
  0.50000000  0.62500000  0.87500000
  0.50000000  0.75000000  0.00000000
  0.50000000  0.75000000  0.12500000
  0.50000000  0.75000000  0.25000000
  0.50000000  0.75000000  0.37500000
  0.50000000  0.75000000  0.50000000
  0.50000000  0.75000000  0.62500000
  0.50000000  0.75000000  0.75000000
  0.50000000  0.75000000  0.87500000
  0.50000000  0.87500000  0.00000000
  0.50000000  0.87500000  0.12500000
  0.50000000  0.87500000  0.25000000
  0.50000000  0.87500000  0.37500000
  0.50000000  0.87500000  0.50000000
  0.50000000  0.87500000  0.62500000
  0.50000000  0.87500000  0.75000000
  0.50000000  0.87500000  0.87500000
  0.62500000  0.00000000  0.00000000
  0.62500000  0.00000000  0.12500000
  0.62500000  0.00000000  0.25000000
  0.62500000  0.00000000  0.37500000
  0.62500000  0.00000000  0.50000000
  0.62500000  0.00000000  0.62500000
  0.62500000  0.00000000  0.75000000
  0.62500000  0.00000000  0.87500000
  0.62500000  0.12500000  0.00000000
  0.62500000  0.12500000  0.12500000
  0.62500000  0.12500000  0.25000000
  0.62500000  0.12500000  0.37500000
  0.62500000  0.12500000  0.50000000
  0.62500000  0.12500000  0.62500000
  0.62500000  0.12500000  0.75000000
  0.62500000  0.12500000  0.87500000
  0.62500000  0.25000000  0.00000000
  0.62500000  0.25000000  0.12500000
  0.62500000  0.25000000  0.25000000
  0.62500000  0.25000000  0.37500000
  0.62500000  0.25000000  0.50000000
  0.62500000  0.25000000  0.62500000
  0.62500000  0.25000000  0.75000000
  0.62500000  0.25000000  0.87500000
  0.62500000  0.37500000  0.00000000
  0.62500000  0.37500000  0.12500000
  0.62500000  0.37500000  0.25000000
  0.62500000  0.37500000  0.37500000
  0.62500000  0.37500000  0.50000000
  0.62500000  0.37500000  0.62500000
  0.62500000  0.37500000  0.75000000
  0.62500000  0.37500000  0.87500000
  0.62500000  0.50000000  0.00000000
  0.62500000  0.50000000  0.12500000
  0.62500000  0.50000000  0.25000000
  0.62500000  0.50000000  0.37500000
  0.62500000  0.50000000  0.50000000
  0.62500000  0.50000000  0.62500000
  0.62500000  0.50000000  0.75000000
  0.62500000  0.50000000  0.87500000
  0.62500000  0.62500000  0.00000000
  0.62500000  0.62500000  0.12500000
  0.62500000  0.62500000  0.25000000
  0.62500000  0.62500000  0.37500000
  0.62500000  0.62500000  0.50000000
  0.62500000  0.62500000  0.62500000
  0.62500000  0.62500000  0.75000000
  0.62500000  0.62500000  0.87500000
  0.62500000  0.75000000  0.00000000
  0.62500000  0.75000000  0.12500000
  0.62500000  0.75000000  0.25000000
  0.62500000  0.75000000  0.37500000
  0.62500000  0.75000000  0.50000000
  0.62500000  0.75000000  0.62500000
  0.62500000  0.75000000  0.75000000
  0.62500000  0.75000000  0.87500000
  0.62500000  0.87500000  0.00000000
  0.62500000  0.87500000  0.12500000
  0.62500000  0.87500000  0.25000000
  0.62500000  0.87500000  0.37500000
  0.62500000  0.87500000  0.50000000
  0.62500000  0.87500000  0.62500000
  0.62500000  0.87500000  0.75000000
  0.62500000  0.87500000  0.87500000
  0.75000000  0.00000000  0.00000000
  0.75000000  0.00000000  0.12500000
  0.75000000  0.00000000  0.25000000
  0.75000000  0.00000000  0.37500000
  0.75000000  0.00000000  0.50000000
  0.75000000  0.00000000  0.62500000
  0.75000000  0.00000000  0.75000000
  0.75000000  0.00000000  0.87500000
  0.75000000  0.12500000  0.00000000
  0.75000000  0.12500000  0.12500000
  0.75000000  0.12500000  0.25000000
  0.75000000  0.12500000  0.37500000
  0.75000000  0.12500000  0.50000000
  0.75000000  0.12500000  0.62500000
  0.75000000  0.12500000  0.75000000
  0.75000000  0.12500000  0.87500000
  0.75000000  0.25000000  0.00000000
  0.75000000  0.25000000  0.12500000
  0.75000000  0.25000000  0.25000000
  0.75000000  0.25000000  0.37500000
  0.75000000  0.25000000  0.50000000
  0.75000000  0.25000000  0.62500000
  0.75000000  0.25000000  0.75000000
  0.75000000  0.25000000  0.87500000
  0.75000000  0.37500000  0.00000000
  0.75000000  0.37500000  0.12500000
  0.75000000  0.37500000  0.25000000
  0.75000000  0.37500000  0.37500000
  0.75000000  0.37500000  0.50000000
  0.75000000  0.37500000  0.62500000
  0.75000000  0.37500000  0.75000000
  0.75000000  0.37500000  0.87500000
  0.75000000  0.50000000  0.00000000
  0.75000000  0.50000000  0.12500000
  0.75000000  0.50000000  0.25000000
  0.75000000  0.50000000  0.37500000
  0.75000000  0.50000000  0.50000000
  0.75000000  0.50000000  0.62500000
  0.75000000  0.50000000  0.75000000
  0.75000000  0.50000000  0.87500000
  0.75000000  0.62500000  0.00000000
  0.75000000  0.62500000  0.12500000
  0.75000000  0.62500000  0.25000000
  0.75000000  0.62500000  0.37500000
  0.75000000  0.62500000  0.50000000
  0.75000000  0.62500000  0.62500000
  0.75000000  0.62500000  0.75000000
  0.75000000  0.62500000  0.87500000
  0.75000000  0.75000000  0.00000000
  0.75000000  0.75000000  0.12500000
  0.75000000  0.75000000  0.25000000
  0.75000000  0.75000000  0.37500000
  0.75000000  0.75000000  0.50000000
  0.75000000  0.75000000  0.62500000
  0.75000000  0.75000000  0.75000000
  0.75000000  0.75000000  0.87500000
  0.75000000  0.87500000  0.00000000
  0.75000000  0.87500000  0.12500000
  0.75000000  0.87500000  0.25000000
  0.75000000  0.87500000  0.37500000
  0.75000000  0.87500000  0.50000000
  0.75000000  0.87500000  0.62500000
  0.75000000  0.87500000  0.75000000
  0.75000000  0.87500000  0.87500000
  0.87500000  0.00000000  0.00000000
  0.87500000  0.00000000  0.12500000
  0.87500000  0.00000000  0.25000000
  0.87500000  0.00000000  0.37500000
  0.87500000  0.00000000  0.50000000
  0.87500000  0.00000000  0.62500000
  0.87500000  0.00000000  0.75000000
  0.87500000  0.00000000  0.87500000
  0.87500000  0.12500000  0.00000000
  0.87500000  0.12500000  0.12500000
  0.87500000  0.12500000  0.25000000
  0.87500000  0.12500000  0.37500000
  0.87500000  0.12500000  0.50000000
  0.87500000  0.12500000  0.62500000
  0.87500000  0.12500000  0.75000000
  0.87500000  0.12500000  0.87500000
  0.87500000  0.25000000  0.00000000
  0.87500000  0.25000000  0.12500000
  0.87500000  0.25000000  0.25000000
  0.87500000  0.25000000  0.37500000
  0.87500000  0.25000000  0.50000000
  0.87500000  0.25000000  0.62500000
  0.87500000  0.25000000  0.75000000
  0.87500000  0.25000000  0.87500000
  0.87500000  0.37500000  0.00000000
  0.87500000  0.37500000  0.12500000
  0.87500000  0.37500000  0.25000000
  0.87500000  0.37500000  0.37500000
  0.87500000  0.37500000  0.50000000
  0.87500000  0.37500000  0.62500000
  0.87500000  0.37500000  0.75000000
  0.87500000  0.37500000  0.87500000
  0.87500000  0.50000000  0.00000000
  0.87500000  0.50000000  0.12500000
  0.87500000  0.50000000  0.25000000
  0.87500000  0.50000000  0.37500000
  0.87500000  0.50000000  0.50000000
  0.87500000  0.50000000  0.62500000
  0.87500000  0.50000000  0.75000000
  0.87500000  0.50000000  0.87500000
  0.87500000  0.62500000  0.00000000
  0.87500000  0.62500000  0.12500000
  0.87500000  0.62500000  0.25000000
  0.87500000  0.62500000  0.37500000
  0.87500000  0.62500000  0.50000000
  0.87500000  0.62500000  0.62500000
  0.87500000  0.62500000  0.75000000
  0.87500000  0.62500000  0.87500000
  0.87500000  0.75000000  0.00000000
  0.87500000  0.75000000  0.12500000
  0.87500000  0.75000000  0.25000000
  0.87500000  0.75000000  0.37500000
  0.87500000  0.75000000  0.50000000
  0.87500000  0.75000000  0.62500000
  0.87500000  0.75000000  0.75000000
  0.87500000  0.75000000  0.87500000
  0.87500000  0.87500000  0.00000000
  0.87500000  0.87500000  0.12500000
  0.87500000  0.87500000  0.25000000
  0.87500000  0.87500000  0.37500000
  0.87500000  0.87500000  0.50000000
  0.87500000  0.87500000  0.62500000
  0.87500000  0.87500000  0.75000000
  0.87500000  0.87500000  0.87500000
End Kpoints
