&input
    mesh_dir = './'
    prefix = 'gaas'
    nk1 = 4
    nk2 = 4
    nk3 = 4
    TR_symmetry = .false.
/

&intw2W
/

&ph
    nq1 = 1
    nq2 = 1
    nq3 = 1
    nqirr = 1
/
