
SystemName   bulk silicon
SystemLabel  si

NumberOfAtoms    2
NumberOfSpecies  1

%block ChemicalSpeciesLabel
 1  14  Si
%endblock ChemicalSpeciesLabel

#Spin  non-colinear

XC.Functional  LDA
XC.Authors     PZ

PAO.BasisSize    DZP
PAO.EnergyShift  300 meV

MeshCutoff  200.0 Ry

DM.MixingWeight  0.3
DM.NumberPulay   3
DM.Tolerance     1.d-4

TimeReversalSymmetryForKpoints false
%block kgrid_Monkhorst_Pack
   4   0   0    0.
   0   4   0    0.
   0   0   4    0.
%endblock kgrid_Monkhorst_Pack

M.UseSaveDM true

SolutionMethod         diagon
ElectronicTemperature  25 meV

#Siesta2Wannier90.WriteMmn  true
#Siesta2Wannier90.WriteAmn  true
#Siesta2Wannier90.WriteEig  true

Denchar.PlotWaveFunctions  true

LatticeConstant  5.43 Ang
%block LatticeVectors
  -0.500  0.000  0.500
   0.000  0.500  0.500
  -0.500  0.500  0.000
%endblock LatticeVectors

AtomicCoordinatesFormat  Fractional
%block AtomicCoordinatesAndAtomicSpecies
    -0.125   -0.125   -0.125     1  Si        2
     0.125    0.125    0.125     1  Si        1
%endblock AtomicCoordinatesAndAtomicSpecies
