M.UseSaveDM true
Denchar.PlotWaveFunctions true
WaveFuncKPointsScale ReciprocalLatticeVectors
%block WaveFuncKPoints
0.000000    0.000000    0.000000
0.000000    0.000000    0.125000
0.000000    0.000000    0.250000
0.000000    0.000000    0.375000
0.000000    0.000000    0.500000
0.000000    0.125000    0.125000
0.000000    0.125000    0.250000
0.000000    0.125000    0.375000
0.000000    0.125000    0.500000
0.000000    0.125000    0.625000
0.000000    0.125000    0.750000
0.000000    0.125000    0.875000
0.000000    0.250000    0.250000
0.000000    0.250000    0.375000
0.000000    0.250000    0.500000
0.000000    0.250000    0.625000
0.000000    0.250000    0.750000
0.000000    0.375000    0.375000
0.000000    0.375000    0.500000
0.000000    0.375000    0.625000
0.000000    0.500000    0.500000
0.125000    0.250000    0.375000
0.125000    0.250000    0.500000
0.125000    0.250000    0.625000
0.125000    0.375000    0.500000
0.125000    0.375000    0.625000
0.125000    0.375000    0.750000
0.125000    0.500000    0.625000
0.250000    0.500000    0.750000
%endblock WaveFuncKPoints


SystemName          bulk silicon 
SystemLabel         si

NumberOfAtoms       2
NumberOfSpecies     1

%block ChemicalSpeciesLabel
 1  14  Si
%endblock ChemicalSpeciesLabel

PAO.BasisSize       DZP
PAO.EnergyShift     300 meV

LatticeConstant    5.43 Ang
%block LatticeVectors
  -0.500  0.000  0.500
   0.000  0.500  0.500
  -0.500  0.500  0.000
%endblock LatticeVectors

MeshCutoff          200.0 Ry

DM.MixingWeight      0.3 
DM.NumberPulay       3  
DM.Tolerance         1.d-4
 
kgridcutoff          7. Ang

SolutionMethod       diagon    
ElectronicTemperature  25 meV  

AtomicCoordinatesFormat  Fractional
%block AtomicCoordinatesAndAtomicSpecies
     0.125    0.125    0.125     1  Si        1
    -0.125  -0.125  -0.125   1  Si        2
%endblock AtomicCoordinatesAndAtomicSpecies
