num_bands       =  8 
num_wann        =  4

#dis_froz_min    = 1.0 
#dis_froz_max    = 10.0 

#fermi_surface_plot=.true.
#fermi_surface_num_points=50
#fermi_energy=10.074

num_iter        = 10000
dis_num_iter    = 3000

#restart=wannierise
#hr_plot = true
bands_plot = true

begin atoms_frac
Si -0.1250000 -0.1250000 -0.1250000  
Si  0.1250000  0.1250000  0.1250000  
end atoms_frac

Begin Kpoint_Path
X -0.500  0.000  -0.50    G  0.000   0.000   0.00
G  0.000  0.000   0.00    L  0.000   0.500   0.00
L  0.000  0.500   0.00    K -0.375   0.375  -0.00
K -0.375  0.375  -0.00    W -0.500   0.250  -0.25
W -0.500  0.250  -0.25    G  0.000   0.000   0.00    
G  0.000  0.000   0.00    K -0.375   0.375  -0.00
End Kpoint_Path


begin projections
f=0.3333,0.6666,0.5000:sp3
end projections

begin unit_cell_cart
Bohr
-5.10245 0.000000 5.10245
 0.00000 5.102450 5.10245
-5.10245 5.102450 0.00000 
end unit_cell_cart

mp_grid : 8 8 8  

begin kpoints
  0.00000000  0.00000000  0.00000000 
  0.00000000  0.00000000  0.12500000 
  0.00000000  0.00000000  0.25000000 
  0.00000000  0.00000000  0.37500000 
  0.00000000  0.00000000  0.50000000 
  0.00000000  0.00000000  0.62500000 
  0.00000000  0.00000000  0.75000000 
  0.00000000  0.00000000  0.87500000 
  0.00000000  0.12500000  0.00000000 
  0.00000000  0.12500000  0.12500000 
  0.00000000  0.12500000  0.25000000 
  0.00000000  0.12500000  0.37500000 
  0.00000000  0.12500000  0.50000000 
  0.00000000  0.12500000  0.62500000 
  0.00000000  0.12500000  0.75000000 
  0.00000000  0.12500000  0.87500000 
  0.00000000  0.25000000  0.00000000 
  0.00000000  0.25000000  0.12500000 
  0.00000000  0.25000000  0.25000000 
  0.00000000  0.25000000  0.37500000 
  0.00000000  0.25000000  0.50000000 
  0.00000000  0.25000000  0.62500000 
  0.00000000  0.25000000  0.75000000 
  0.00000000  0.25000000  0.87500000 
  0.00000000  0.37500000  0.00000000 
  0.00000000  0.37500000  0.12500000 
  0.00000000  0.37500000  0.25000000 
  0.00000000  0.37500000  0.37500000 
  0.00000000  0.37500000  0.50000000 
  0.00000000  0.37500000  0.62500000 
  0.00000000  0.37500000  0.75000000 
  0.00000000  0.37500000  0.87500000 
  0.00000000  0.50000000  0.00000000 
  0.00000000  0.50000000  0.12500000 
  0.00000000  0.50000000  0.25000000 
  0.00000000  0.50000000  0.37500000 
  0.00000000  0.50000000  0.50000000 
  0.00000000  0.50000000  0.62500000 
  0.00000000  0.50000000  0.75000000 
  0.00000000  0.50000000  0.87500000 
  0.00000000  0.62500000  0.00000000 
  0.00000000  0.62500000  0.12500000 
  0.00000000  0.62500000  0.25000000 
  0.00000000  0.62500000  0.37500000 
  0.00000000  0.62500000  0.50000000 
  0.00000000  0.62500000  0.62500000 
  0.00000000  0.62500000  0.75000000 
  0.00000000  0.62500000  0.87500000 
  0.00000000  0.75000000  0.00000000 
  0.00000000  0.75000000  0.12500000 
  0.00000000  0.75000000  0.25000000 
  0.00000000  0.75000000  0.37500000 
  0.00000000  0.75000000  0.50000000 
  0.00000000  0.75000000  0.62500000 
  0.00000000  0.75000000  0.75000000 
  0.00000000  0.75000000  0.87500000 
  0.00000000  0.87500000  0.00000000 
  0.00000000  0.87500000  0.12500000 
  0.00000000  0.87500000  0.25000000 
  0.00000000  0.87500000  0.37500000 
  0.00000000  0.87500000  0.50000000 
  0.00000000  0.87500000  0.62500000 
  0.00000000  0.87500000  0.75000000 
  0.00000000  0.87500000  0.87500000 
  0.12500000  0.00000000  0.00000000 
  0.12500000  0.00000000  0.12500000 
  0.12500000  0.00000000  0.25000000 
  0.12500000  0.00000000  0.37500000 
  0.12500000  0.00000000  0.50000000 
  0.12500000  0.00000000  0.62500000 
  0.12500000  0.00000000  0.75000000 
  0.12500000  0.00000000  0.87500000 
  0.12500000  0.12500000  0.00000000 
  0.12500000  0.12500000  0.12500000 
  0.12500000  0.12500000  0.25000000 
  0.12500000  0.12500000  0.37500000 
  0.12500000  0.12500000  0.50000000 
  0.12500000  0.12500000  0.62500000 
  0.12500000  0.12500000  0.75000000 
  0.12500000  0.12500000  0.87500000 
  0.12500000  0.25000000  0.00000000 
  0.12500000  0.25000000  0.12500000 
  0.12500000  0.25000000  0.25000000 
  0.12500000  0.25000000  0.37500000 
  0.12500000  0.25000000  0.50000000 
  0.12500000  0.25000000  0.62500000 
  0.12500000  0.25000000  0.75000000 
  0.12500000  0.25000000  0.87500000 
  0.12500000  0.37500000  0.00000000 
  0.12500000  0.37500000  0.12500000 
  0.12500000  0.37500000  0.25000000 
  0.12500000  0.37500000  0.37500000 
  0.12500000  0.37500000  0.50000000 
  0.12500000  0.37500000  0.62500000 
  0.12500000  0.37500000  0.75000000 
  0.12500000  0.37500000  0.87500000 
  0.12500000  0.50000000  0.00000000 
  0.12500000  0.50000000  0.12500000 
  0.12500000  0.50000000  0.25000000 
  0.12500000  0.50000000  0.37500000 
  0.12500000  0.50000000  0.50000000 
  0.12500000  0.50000000  0.62500000 
  0.12500000  0.50000000  0.75000000 
  0.12500000  0.50000000  0.87500000 
  0.12500000  0.62500000  0.00000000 
  0.12500000  0.62500000  0.12500000 
  0.12500000  0.62500000  0.25000000 
  0.12500000  0.62500000  0.37500000 
  0.12500000  0.62500000  0.50000000 
  0.12500000  0.62500000  0.62500000 
  0.12500000  0.62500000  0.75000000 
  0.12500000  0.62500000  0.87500000 
  0.12500000  0.75000000  0.00000000 
  0.12500000  0.75000000  0.12500000 
  0.12500000  0.75000000  0.25000000 
  0.12500000  0.75000000  0.37500000 
  0.12500000  0.75000000  0.50000000 
  0.12500000  0.75000000  0.62500000 
  0.12500000  0.75000000  0.75000000 
  0.12500000  0.75000000  0.87500000 
  0.12500000  0.87500000  0.00000000 
  0.12500000  0.87500000  0.12500000 
  0.12500000  0.87500000  0.25000000 
  0.12500000  0.87500000  0.37500000 
  0.12500000  0.87500000  0.50000000 
  0.12500000  0.87500000  0.62500000 
  0.12500000  0.87500000  0.75000000 
  0.12500000  0.87500000  0.87500000 
  0.25000000  0.00000000  0.00000000 
  0.25000000  0.00000000  0.12500000 
  0.25000000  0.00000000  0.25000000 
  0.25000000  0.00000000  0.37500000 
  0.25000000  0.00000000  0.50000000 
  0.25000000  0.00000000  0.62500000 
  0.25000000  0.00000000  0.75000000 
  0.25000000  0.00000000  0.87500000 
  0.25000000  0.12500000  0.00000000 
  0.25000000  0.12500000  0.12500000 
  0.25000000  0.12500000  0.25000000 
  0.25000000  0.12500000  0.37500000 
  0.25000000  0.12500000  0.50000000 
  0.25000000  0.12500000  0.62500000 
  0.25000000  0.12500000  0.75000000 
  0.25000000  0.12500000  0.87500000 
  0.25000000  0.25000000  0.00000000 
  0.25000000  0.25000000  0.12500000 
  0.25000000  0.25000000  0.25000000 
  0.25000000  0.25000000  0.37500000 
  0.25000000  0.25000000  0.50000000 
  0.25000000  0.25000000  0.62500000 
  0.25000000  0.25000000  0.75000000 
  0.25000000  0.25000000  0.87500000 
  0.25000000  0.37500000  0.00000000 
  0.25000000  0.37500000  0.12500000 
  0.25000000  0.37500000  0.25000000 
  0.25000000  0.37500000  0.37500000 
  0.25000000  0.37500000  0.50000000 
  0.25000000  0.37500000  0.62500000 
  0.25000000  0.37500000  0.75000000 
  0.25000000  0.37500000  0.87500000 
  0.25000000  0.50000000  0.00000000 
  0.25000000  0.50000000  0.12500000 
  0.25000000  0.50000000  0.25000000 
  0.25000000  0.50000000  0.37500000 
  0.25000000  0.50000000  0.50000000 
  0.25000000  0.50000000  0.62500000 
  0.25000000  0.50000000  0.75000000 
  0.25000000  0.50000000  0.87500000 
  0.25000000  0.62500000  0.00000000 
  0.25000000  0.62500000  0.12500000 
  0.25000000  0.62500000  0.25000000 
  0.25000000  0.62500000  0.37500000 
  0.25000000  0.62500000  0.50000000 
  0.25000000  0.62500000  0.62500000 
  0.25000000  0.62500000  0.75000000 
  0.25000000  0.62500000  0.87500000 
  0.25000000  0.75000000  0.00000000 
  0.25000000  0.75000000  0.12500000 
  0.25000000  0.75000000  0.25000000 
  0.25000000  0.75000000  0.37500000 
  0.25000000  0.75000000  0.50000000 
  0.25000000  0.75000000  0.62500000 
  0.25000000  0.75000000  0.75000000 
  0.25000000  0.75000000  0.87500000 
  0.25000000  0.87500000  0.00000000 
  0.25000000  0.87500000  0.12500000 
  0.25000000  0.87500000  0.25000000 
  0.25000000  0.87500000  0.37500000 
  0.25000000  0.87500000  0.50000000 
  0.25000000  0.87500000  0.62500000 
  0.25000000  0.87500000  0.75000000 
  0.25000000  0.87500000  0.87500000 
  0.37500000  0.00000000  0.00000000 
  0.37500000  0.00000000  0.12500000 
  0.37500000  0.00000000  0.25000000 
  0.37500000  0.00000000  0.37500000 
  0.37500000  0.00000000  0.50000000 
  0.37500000  0.00000000  0.62500000 
  0.37500000  0.00000000  0.75000000 
  0.37500000  0.00000000  0.87500000 
  0.37500000  0.12500000  0.00000000 
  0.37500000  0.12500000  0.12500000 
  0.37500000  0.12500000  0.25000000 
  0.37500000  0.12500000  0.37500000 
  0.37500000  0.12500000  0.50000000 
  0.37500000  0.12500000  0.62500000 
  0.37500000  0.12500000  0.75000000 
  0.37500000  0.12500000  0.87500000 
  0.37500000  0.25000000  0.00000000 
  0.37500000  0.25000000  0.12500000 
  0.37500000  0.25000000  0.25000000 
  0.37500000  0.25000000  0.37500000 
  0.37500000  0.25000000  0.50000000 
  0.37500000  0.25000000  0.62500000 
  0.37500000  0.25000000  0.75000000 
  0.37500000  0.25000000  0.87500000 
  0.37500000  0.37500000  0.00000000 
  0.37500000  0.37500000  0.12500000 
  0.37500000  0.37500000  0.25000000 
  0.37500000  0.37500000  0.37500000 
  0.37500000  0.37500000  0.50000000 
  0.37500000  0.37500000  0.62500000 
  0.37500000  0.37500000  0.75000000 
  0.37500000  0.37500000  0.87500000 
  0.37500000  0.50000000  0.00000000 
  0.37500000  0.50000000  0.12500000 
  0.37500000  0.50000000  0.25000000 
  0.37500000  0.50000000  0.37500000 
  0.37500000  0.50000000  0.50000000 
  0.37500000  0.50000000  0.62500000 
  0.37500000  0.50000000  0.75000000 
  0.37500000  0.50000000  0.87500000 
  0.37500000  0.62500000  0.00000000 
  0.37500000  0.62500000  0.12500000 
  0.37500000  0.62500000  0.25000000 
  0.37500000  0.62500000  0.37500000 
  0.37500000  0.62500000  0.50000000 
  0.37500000  0.62500000  0.62500000 
  0.37500000  0.62500000  0.75000000 
  0.37500000  0.62500000  0.87500000 
  0.37500000  0.75000000  0.00000000 
  0.37500000  0.75000000  0.12500000 
  0.37500000  0.75000000  0.25000000 
  0.37500000  0.75000000  0.37500000 
  0.37500000  0.75000000  0.50000000 
  0.37500000  0.75000000  0.62500000 
  0.37500000  0.75000000  0.75000000 
  0.37500000  0.75000000  0.87500000 
  0.37500000  0.87500000  0.00000000 
  0.37500000  0.87500000  0.12500000 
  0.37500000  0.87500000  0.25000000 
  0.37500000  0.87500000  0.37500000 
  0.37500000  0.87500000  0.50000000 
  0.37500000  0.87500000  0.62500000 
  0.37500000  0.87500000  0.75000000 
  0.37500000  0.87500000  0.87500000 
  0.50000000  0.00000000  0.00000000 
  0.50000000  0.00000000  0.12500000 
  0.50000000  0.00000000  0.25000000 
  0.50000000  0.00000000  0.37500000 
  0.50000000  0.00000000  0.50000000 
  0.50000000  0.00000000  0.62500000 
  0.50000000  0.00000000  0.75000000 
  0.50000000  0.00000000  0.87500000 
  0.50000000  0.12500000  0.00000000 
  0.50000000  0.12500000  0.12500000 
  0.50000000  0.12500000  0.25000000 
  0.50000000  0.12500000  0.37500000 
  0.50000000  0.12500000  0.50000000 
  0.50000000  0.12500000  0.62500000 
  0.50000000  0.12500000  0.75000000 
  0.50000000  0.12500000  0.87500000 
  0.50000000  0.25000000  0.00000000 
  0.50000000  0.25000000  0.12500000 
  0.50000000  0.25000000  0.25000000 
  0.50000000  0.25000000  0.37500000 
  0.50000000  0.25000000  0.50000000 
  0.50000000  0.25000000  0.62500000 
  0.50000000  0.25000000  0.75000000 
  0.50000000  0.25000000  0.87500000 
  0.50000000  0.37500000  0.00000000 
  0.50000000  0.37500000  0.12500000 
  0.50000000  0.37500000  0.25000000 
  0.50000000  0.37500000  0.37500000 
  0.50000000  0.37500000  0.50000000 
  0.50000000  0.37500000  0.62500000 
  0.50000000  0.37500000  0.75000000 
  0.50000000  0.37500000  0.87500000 
  0.50000000  0.50000000  0.00000000 
  0.50000000  0.50000000  0.12500000 
  0.50000000  0.50000000  0.25000000 
  0.50000000  0.50000000  0.37500000 
  0.50000000  0.50000000  0.50000000 
  0.50000000  0.50000000  0.62500000 
  0.50000000  0.50000000  0.75000000 
  0.50000000  0.50000000  0.87500000 
  0.50000000  0.62500000  0.00000000 
  0.50000000  0.62500000  0.12500000 
  0.50000000  0.62500000  0.25000000 
  0.50000000  0.62500000  0.37500000 
  0.50000000  0.62500000  0.50000000 
  0.50000000  0.62500000  0.62500000 
  0.50000000  0.62500000  0.75000000 
  0.50000000  0.62500000  0.87500000 
  0.50000000  0.75000000  0.00000000 
  0.50000000  0.75000000  0.12500000 
  0.50000000  0.75000000  0.25000000 
  0.50000000  0.75000000  0.37500000 
  0.50000000  0.75000000  0.50000000 
  0.50000000  0.75000000  0.62500000 
  0.50000000  0.75000000  0.75000000 
  0.50000000  0.75000000  0.87500000 
  0.50000000  0.87500000  0.00000000 
  0.50000000  0.87500000  0.12500000 
  0.50000000  0.87500000  0.25000000 
  0.50000000  0.87500000  0.37500000 
  0.50000000  0.87500000  0.50000000 
  0.50000000  0.87500000  0.62500000 
  0.50000000  0.87500000  0.75000000 
  0.50000000  0.87500000  0.87500000 
  0.62500000  0.00000000  0.00000000 
  0.62500000  0.00000000  0.12500000 
  0.62500000  0.00000000  0.25000000 
  0.62500000  0.00000000  0.37500000 
  0.62500000  0.00000000  0.50000000 
  0.62500000  0.00000000  0.62500000 
  0.62500000  0.00000000  0.75000000 
  0.62500000  0.00000000  0.87500000 
  0.62500000  0.12500000  0.00000000 
  0.62500000  0.12500000  0.12500000 
  0.62500000  0.12500000  0.25000000 
  0.62500000  0.12500000  0.37500000 
  0.62500000  0.12500000  0.50000000 
  0.62500000  0.12500000  0.62500000 
  0.62500000  0.12500000  0.75000000 
  0.62500000  0.12500000  0.87500000 
  0.62500000  0.25000000  0.00000000 
  0.62500000  0.25000000  0.12500000 
  0.62500000  0.25000000  0.25000000 
  0.62500000  0.25000000  0.37500000 
  0.62500000  0.25000000  0.50000000 
  0.62500000  0.25000000  0.62500000 
  0.62500000  0.25000000  0.75000000 
  0.62500000  0.25000000  0.87500000 
  0.62500000  0.37500000  0.00000000 
  0.62500000  0.37500000  0.12500000 
  0.62500000  0.37500000  0.25000000 
  0.62500000  0.37500000  0.37500000 
  0.62500000  0.37500000  0.50000000 
  0.62500000  0.37500000  0.62500000 
  0.62500000  0.37500000  0.75000000 
  0.62500000  0.37500000  0.87500000 
  0.62500000  0.50000000  0.00000000 
  0.62500000  0.50000000  0.12500000 
  0.62500000  0.50000000  0.25000000 
  0.62500000  0.50000000  0.37500000 
  0.62500000  0.50000000  0.50000000 
  0.62500000  0.50000000  0.62500000 
  0.62500000  0.50000000  0.75000000 
  0.62500000  0.50000000  0.87500000 
  0.62500000  0.62500000  0.00000000 
  0.62500000  0.62500000  0.12500000 
  0.62500000  0.62500000  0.25000000 
  0.62500000  0.62500000  0.37500000 
  0.62500000  0.62500000  0.50000000 
  0.62500000  0.62500000  0.62500000 
  0.62500000  0.62500000  0.75000000 
  0.62500000  0.62500000  0.87500000 
  0.62500000  0.75000000  0.00000000 
  0.62500000  0.75000000  0.12500000 
  0.62500000  0.75000000  0.25000000 
  0.62500000  0.75000000  0.37500000 
  0.62500000  0.75000000  0.50000000 
  0.62500000  0.75000000  0.62500000 
  0.62500000  0.75000000  0.75000000 
  0.62500000  0.75000000  0.87500000 
  0.62500000  0.87500000  0.00000000 
  0.62500000  0.87500000  0.12500000 
  0.62500000  0.87500000  0.25000000 
  0.62500000  0.87500000  0.37500000 
  0.62500000  0.87500000  0.50000000 
  0.62500000  0.87500000  0.62500000 
  0.62500000  0.87500000  0.75000000 
  0.62500000  0.87500000  0.87500000 
  0.75000000  0.00000000  0.00000000 
  0.75000000  0.00000000  0.12500000 
  0.75000000  0.00000000  0.25000000 
  0.75000000  0.00000000  0.37500000 
  0.75000000  0.00000000  0.50000000 
  0.75000000  0.00000000  0.62500000 
  0.75000000  0.00000000  0.75000000 
  0.75000000  0.00000000  0.87500000 
  0.75000000  0.12500000  0.00000000 
  0.75000000  0.12500000  0.12500000 
  0.75000000  0.12500000  0.25000000 
  0.75000000  0.12500000  0.37500000 
  0.75000000  0.12500000  0.50000000 
  0.75000000  0.12500000  0.62500000 
  0.75000000  0.12500000  0.75000000 
  0.75000000  0.12500000  0.87500000 
  0.75000000  0.25000000  0.00000000 
  0.75000000  0.25000000  0.12500000 
  0.75000000  0.25000000  0.25000000 
  0.75000000  0.25000000  0.37500000 
  0.75000000  0.25000000  0.50000000 
  0.75000000  0.25000000  0.62500000 
  0.75000000  0.25000000  0.75000000 
  0.75000000  0.25000000  0.87500000 
  0.75000000  0.37500000  0.00000000 
  0.75000000  0.37500000  0.12500000 
  0.75000000  0.37500000  0.25000000 
  0.75000000  0.37500000  0.37500000 
  0.75000000  0.37500000  0.50000000 
  0.75000000  0.37500000  0.62500000 
  0.75000000  0.37500000  0.75000000 
  0.75000000  0.37500000  0.87500000 
  0.75000000  0.50000000  0.00000000 
  0.75000000  0.50000000  0.12500000 
  0.75000000  0.50000000  0.25000000 
  0.75000000  0.50000000  0.37500000 
  0.75000000  0.50000000  0.50000000 
  0.75000000  0.50000000  0.62500000 
  0.75000000  0.50000000  0.75000000 
  0.75000000  0.50000000  0.87500000 
  0.75000000  0.62500000  0.00000000 
  0.75000000  0.62500000  0.12500000 
  0.75000000  0.62500000  0.25000000 
  0.75000000  0.62500000  0.37500000 
  0.75000000  0.62500000  0.50000000 
  0.75000000  0.62500000  0.62500000 
  0.75000000  0.62500000  0.75000000 
  0.75000000  0.62500000  0.87500000 
  0.75000000  0.75000000  0.00000000 
  0.75000000  0.75000000  0.12500000 
  0.75000000  0.75000000  0.25000000 
  0.75000000  0.75000000  0.37500000 
  0.75000000  0.75000000  0.50000000 
  0.75000000  0.75000000  0.62500000 
  0.75000000  0.75000000  0.75000000 
  0.75000000  0.75000000  0.87500000 
  0.75000000  0.87500000  0.00000000 
  0.75000000  0.87500000  0.12500000 
  0.75000000  0.87500000  0.25000000 
  0.75000000  0.87500000  0.37500000 
  0.75000000  0.87500000  0.50000000 
  0.75000000  0.87500000  0.62500000 
  0.75000000  0.87500000  0.75000000 
  0.75000000  0.87500000  0.87500000 
  0.87500000  0.00000000  0.00000000 
  0.87500000  0.00000000  0.12500000 
  0.87500000  0.00000000  0.25000000 
  0.87500000  0.00000000  0.37500000 
  0.87500000  0.00000000  0.50000000 
  0.87500000  0.00000000  0.62500000 
  0.87500000  0.00000000  0.75000000 
  0.87500000  0.00000000  0.87500000 
  0.87500000  0.12500000  0.00000000 
  0.87500000  0.12500000  0.12500000 
  0.87500000  0.12500000  0.25000000 
  0.87500000  0.12500000  0.37500000 
  0.87500000  0.12500000  0.50000000 
  0.87500000  0.12500000  0.62500000 
  0.87500000  0.12500000  0.75000000 
  0.87500000  0.12500000  0.87500000 
  0.87500000  0.25000000  0.00000000 
  0.87500000  0.25000000  0.12500000 
  0.87500000  0.25000000  0.25000000 
  0.87500000  0.25000000  0.37500000 
  0.87500000  0.25000000  0.50000000 
  0.87500000  0.25000000  0.62500000 
  0.87500000  0.25000000  0.75000000 
  0.87500000  0.25000000  0.87500000 
  0.87500000  0.37500000  0.00000000 
  0.87500000  0.37500000  0.12500000 
  0.87500000  0.37500000  0.25000000 
  0.87500000  0.37500000  0.37500000 
  0.87500000  0.37500000  0.50000000 
  0.87500000  0.37500000  0.62500000 
  0.87500000  0.37500000  0.75000000 
  0.87500000  0.37500000  0.87500000 
  0.87500000  0.50000000  0.00000000 
  0.87500000  0.50000000  0.12500000 
  0.87500000  0.50000000  0.25000000 
  0.87500000  0.50000000  0.37500000 
  0.87500000  0.50000000  0.50000000 
  0.87500000  0.50000000  0.62500000 
  0.87500000  0.50000000  0.75000000 
  0.87500000  0.50000000  0.87500000 
  0.87500000  0.62500000  0.00000000 
  0.87500000  0.62500000  0.12500000 
  0.87500000  0.62500000  0.25000000 
  0.87500000  0.62500000  0.37500000 
  0.87500000  0.62500000  0.50000000 
  0.87500000  0.62500000  0.62500000 
  0.87500000  0.62500000  0.75000000 
  0.87500000  0.62500000  0.87500000 
  0.87500000  0.75000000  0.00000000 
  0.87500000  0.75000000  0.12500000 
  0.87500000  0.75000000  0.25000000 
  0.87500000  0.75000000  0.37500000 
  0.87500000  0.75000000  0.50000000 
  0.87500000  0.75000000  0.62500000 
  0.87500000  0.75000000  0.75000000 
  0.87500000  0.75000000  0.87500000 
  0.87500000  0.87500000  0.00000000 
  0.87500000  0.87500000  0.12500000 
  0.87500000  0.87500000  0.25000000 
  0.87500000  0.87500000  0.37500000 
  0.87500000  0.87500000  0.50000000 
  0.87500000  0.87500000  0.62500000 
  0.87500000  0.87500000  0.75000000 
  0.87500000  0.87500000  0.87500000
end kpoints 
